#,Account,OpenSea / ENS,Number Owned,last Active
1,0xb7f7f6c52f2e2,WrappedCryptoPu,428,7 hours ago
2,0xa858ddc0445d8,,423,1 month ago
3,0xa25803ab86a32,wilcox.eth,238,28 days ago
4,0xb88f61e6fbda8,,215,11 months ago
5,0x577ebc5de943e,,165,5 days ago
6,0x69021ae876958,sov.eth,146,6 months ago
7,0x26f744711ee9e,,141,4 years ago
8,0x4084df8bf74ba,,98,
9,0x269616d549d7e,,96,9 days ago
10,0x31a5ff62a1b2c,,93,1 month ago
11,0x7174039818a41,,89,3 years ago
12,0xcc7c335f3365a,,87,13 days ago
13,0x51688cd36c188,,79,6 days ago
14,0x810fdbc7e5cfe,,77,13 hours ago
15,0xf5a4ba515dd36,,75,1 month ago
16,0xcffc336e6d019,,74,2 months ago
17,0x6f4a2d3a4f47f,,70,9 days ago
18,0x062c5432107e3,,68,3 months ago
19,0x7760e0243ca9b,,66,3 years ago
20,0xdde8df9a7dc9f,Kenney,66,2 months ago
21,0x00b278dd68f9d,,61,8 months ago
22,0x505d79c7379ee,sos1usd.eth,59,1 month ago
23,0xf68e4d63c8ea8,garyvault.eth,59,
24,0xff36ff458b51d,hodlponkz.eth,53,2 months ago
25,0x4d8e16a70f384,,52,
26,0xd79b937791724,,51,3 months ago
27,0x6301add4fb128,ddaavvee,50,1 month ago
28,0x4bbb41f61fffc,,50,1 year ago
29,0x6611fe71c233e,,46,19 hours ago
30,0x005734d7d408b,,46,4 years ago
31,0x2cc12318de28e,,44,
32,0xf65c1c4274560,,43,
33,0xb47a70df538b9,niftynaut.eth,36,2 months ago
34,0x030defb961d3f,,35,6 days ago
35,0xc6a8206756fbc,punks.pixls.eth,35,5 months ago
36,0x97ad156c48078,vault.tonyherre,31,5 days ago
37,0xf605c6c3caa16,,31,7 months ago
38,0x03205743e7fc5,bimyou.eth,31,3 months ago
39,0x2f2f237d2e655,thebeautyandthe,29,7 days ago
40,0x8e23286017176,,29,
41,0x66c7a7348250f,cx000.eth,28,3 years ago
42,0x78f0269f5b1ca,TokenAngels,28,2 days ago
43,0x7583534d2f2c3,,27,27 days ago
44,0x56178626332fc,,26,7 months ago
45,0xc24f574d6853f,shilpixels.eth,26,11 days ago
46,0xbb67d2ab6251a,,26,
47,0x2c81cee7050c9,ddaavvee.eth,25,
48,0x9df947cd8a981,,24,5 months ago
49,0x052564eb0fd8b,pablopunkasso.e,24,11 days ago
50,0x3295df41a2f28,Cyrus,23,3 years ago
51,0x68a7ac13477aa,cdb-vault.eth,22,1 month ago
52,0x0845fc89c51b2,,22,10 days ago
53,0x530afa101bed3,PB,21,1 year ago
54,0x1da5331994e78,,21,1 month ago
55,0xae33cc279f43f,,21,
56,0xc480fb0ebea25,,20,9 days ago
57,0x8088d74111a23,,20,1 month ago
58,0x44fab57dba0e6,,19,4 years ago
59,0x231d688aa706d,,19,2 months ago
60,0x940fec5c4f11f,,18,8 months ago
61,0x896848ad1a209,,18,8 months ago
62,0x584cdfdeed396,,18,10 months ago
63,0x702a39a9d7d84,,18,8 months ago
64,0x9ae8912ea6562,snax,18,26 days ago
65,0xb70c1a3242e36,,18,10 days ago
66,0x2a538000a53f3,0x_NFT,17,1 year ago
67,0x8fa20dcc712bd,,17,22 days ago
68,0xdd9d84399a8e8,,17,4 years ago
69,0x83e551e481581,,17,4 months ago
70,0xb4bb4156e5e6c,,16,2 days ago
71,0x175b49d39c059,realbuddha.eth,16,
72,0xd5b171571df3b,,16,7 months ago
73,0x3d331379990dd,,16,23 days ago
74,0x6ccd607e6e2cc,,16,
75,0x6639c089adfba,vault.punksotc.,16,2 days ago
76,0x783ca9833d58a,pjcurly.eth,15,1 month ago
77,0x3935d398b6770,ms.punksotc.eth,15,5 days ago
78,0x51636d9efbfb7,,15,2 months ago
79,0x328b5cce1b574,,15,23 days ago
80,0x53311150764f7,ohana.eth,15,1 month ago
81,0x0e9aed5c7721c,,15,9 days ago
82,0x8e7644918b3e2,zoink.eth,14,7 months ago
83,0x2754637ab168f,,14,
84,0x67954ac510255,,14,8 days ago
85,0x0258558bf2a4f,,13,6 days ago
86,0x9df6a358688cc,,13,4 months ago
87,0x7447397496b36,,13,4 years ago
88,0xfe0d9af0225f0,,13,1 month ago
89,0xd0d3189ad4f6d,,13,1 month ago
90,0x9d3f4eeb533b8,district13.eth,13,5 months ago
91,0xfe2f279d3679b,subbo.eth,12,11 days ago
92,0x49ad94746a9ec,,12,
93,0x94de7e2c73529,tonyherrera,12,23 days ago
94,0x4c1147725bac8,,12,7 days ago
95,0xb60211811a497,,12,
96,0xe5c4c41194901,Katasterfoes,12,3 months ago
97,0xe83c750b27083,Snowfro,11,20 days ago
98,0xf2ef5636b38ec,marspunks.eth,11,3 months ago
99,0x2e675eeae4747,,11,
100,0xd24ff5e32de12,,11,
101,0x98cfea4a7632e,,11,1 year ago
102,0xffa62e515df44,,11,8 days ago
103,0x79bb5016e87ec,,10,
104,0xc52650d88793c,kcmo.eth,10,1 month ago
105,0x80845058350b8,,10,7 months ago
106,0x2503e93fbb53f,spykid.eth,10,1 month ago
107,0x9e1e409f901a7,,10,8 months ago
108,0xdc9e112ab6859,,10,6 months ago
109,0x27c79a0187896,,10,8 months ago
110,0xbb26a6da4d918,,10,
111,0x564f6bac03c36,,10,
112,0x3ee505ba31687,,10,7 months ago
113,0x5163588239afc,,9,4 months ago
114,0xdb25e38a12d03,NFTinTin,9,3 months ago
115,0x279679e6b44ec,,9,3 months ago
116,0xda2d2923f9867,,9,28 days ago
117,0x1cf2b8c64aed3,,9,24 days ago
118,0x3924b7681c611,,9,10 days ago
119,0xb60704d2cd7dc,,9,1 month ago
120,0x5d89cc281c3f4,blockstar.eth,9,
121,0x897aea3d51dcb,alien635.eth,9,2 months ago
122,0xaafc9b4acb214,,9,3 months ago
123,0x32dd0756316b3,,9,2 months ago
124,0x50664ede715e1,yfimaxi.eth,9,3 months ago
125,0xe5545c0e1b2dc,,9,8 months ago
126,0x0da0df4be4671,metakid,9,4 months ago
127,0xa64bdddd3c2c3,punkbaba.eth,9,5 months ago
128,0x51853e1b61f89,Catdog,9,1 year ago
129,0x800b4dbcef65c,,9,4 years ago
130,0xfba9ef04e1c51,,9,
131,0x374bd185ee19f,,9,1 year ago
132,0x1d00ff1416cf4,banksfucks.eth,9,5 months ago
133,0x1919db36ca2fa,punksotc.eth,9,21 hours ago
134,0xa8d31c4546a78,,9,6 days ago
135,0x83506d12aca4c,pelvis.eth,9,8 months ago
136,0x3284a7c3c5a20,,8,8 days ago
137,0x8f8d8143a04fc,,8,7 days ago
138,0xe301612b0751f,,8,10 days ago
139,0x06bf2b4da028b,,8,8 months ago
140,0xfe83a0a06d830,,8,1 month ago
141,0x485248150969e,🌹🕊🌹.eth,8,2 days ago
142,0x008c84421da55,noun12.eth,8,4 months ago
143,0xdb91873ea5211,,8,
144,0x95e233973efb1,,8,3 days ago
145,0x3689df917b622,cybervault.eth,8,10 days ago
146,0xcbefa0a38a915,,8,6 months ago
147,0x449c69df8487c,,8,2 months ago
148,0xedad6b7434acd,,8,16 days ago
149,0x3852471d266d9,batsoupyumvault,8,
150,0x5382859146010,,8,10 hours ago
151,0x352e13a72bea4,,8,7 days ago
152,0x7811c6a535ddf,,7,3 months ago
153,0x75b9a53e647b8,,7,3 months ago
154,0xda33d5a9720d4,,7,5 months ago
155,0xd049b30649908,1conf.eth,7,2 months ago
156,0xbe7b9e92ae140,,7,
157,0x4322aa46ffed6,,7,1 month ago
158,0xcab07690c44d6,,7,4 months ago
159,0x0a8f4037729ac,,7,
160,0x7f3560773c01c,,7,10 days ago
161,0xd6b2d570a37a3,,7,
162,0x645eb399f09a3,,7,1 month ago
163,0x422fac9209d91,,7,29 days ago
164,0xc72f3a0fedd9d,,7,3 years ago
165,0xb38071b23f0fa,,7,4 months ago
166,0x729fcb34c7c84,,7,4 years ago
167,0x51ec89f1fcfed,,7,1 month ago
168,0x90a2da785f866,pam-vault.eth,7,
169,0xb3e08599ac576,oniichan.eth,7,6 months ago
170,0xb6328f4b747b8,,7,
171,0xef764bac8a438,0xef764bac8a438,7,6 months ago
172,0xce90a7949bb78,,7,6 days ago
173,0xf36972bbff0bb,disco.eth,7,11 days ago
174,0xcc2a855946a3c,,7,22 hours ago
175,0x67c4438c86c00,,7,2 months ago
176,0x8ba68cfe71550,,7,3 months ago
177,0x7c00c9f0e7aed,0x7c00c9f0e7aed,7,4 months ago
178,0x5b53cbf3a7ae6,storage.dcl.eth,7,3 days ago
179,0xe203882039bf2,,6,3 months ago
180,0x2e0c34490a9ee,rodovaulthalla.,6,1 month ago
181,0xf31f591b3dcd3,,6,2 months ago
182,0x43b69f94d756d,,6,3 months ago
183,0xcb8da26bb0ede,,6,1 month ago
184,0x8682a78ea82bd,,6,
185,0x268169a19bca3,,6,9 days ago
186,0xcd1ab231cf7f0,,6,
187,0x968b61557a99b,artofrjm,6,22 days ago
188,0x6ec30fd91a504,daddykalish.eth,6,11 days ago
189,0x93730ce5ac9de,,6,
190,0xd4fa6e82c7771,,6,13 days ago
191,0x470e9bd486ebf,,6,3 months ago
192,0x8b7a5b2217561,zaphod,6,1 month ago
193,0xc182d81b3c3bb,,6,4 years ago
194,0x1c38e6b7a886a,,6,2 months ago
195,0x8c6d56e641164,,6,4 years ago
196,0x1c41d8667e815,,6,
197,0xede69f8f3cb62,,6,2 months ago
198,0xcffc60228e1a8,jesterboxboy.et,6,5 months ago
199,0x0d93bc9654df5,yeastydough.eth,6,7 months ago
200,0xdcf752b5b1dc8,,6,17 days ago
201,0x8dbbca57ea562,VonMises,6,6 days ago
202,0x0d5c661b7bc16,,6,12 days ago
203,0x6a693a682f8cf,xoxo.lossy.eth,6,
204,0xdfc05563f9477,,6,19 days ago
205,0x3cf9a2b7aaad5,,6,
206,0x0ed1e02164a2a,,6,8 months ago
207,0x850cae094ce34,laggy.eth,6,5 months ago
208,0xd6ef9b4164c1c,,6,8 months ago
209,0x3624df662d0f7,,6,5 months ago
210,0x59a5493513ba2,dcinvestor.eth,6,1 year ago
211,0x7dfb9a0e7614b,,6,3 months ago
212,0x1857034ef7c02,,6,1 year ago
213,0xfb47b2ca7df24,,5,
214,0x8ad272ac86c6c,j1mmy_vault,5,22 days ago
215,0xb89c2f6bb674b,Tschuuuly,5,13 days ago
216,0xae7721babd433,,5,2 days ago
217,0x8ed4d3c67ee1a,BlackKettle,5,1 month ago
218,0x8be6ad79f67d1,,5,3 months ago
219,0xc2e32bf7b4f3b,,5,8 months ago
220,0x62d2ce72bb6a8,,5,6 days ago
221,0x32a348ead7ed3,,5,
222,0xf4b4a58974524,peruggia-v.eth,5,8 days ago
223,0x93321b43d594a,,5,
224,0x8a3d2efdb70c3,,5,9 months ago
225,0x5d43e8ac2d585,,5,6 months ago
226,0x64756a0976182,,5,2 months ago
227,0x1757d400578cf,,5,11 months ago
228,0xd44e9b676e74a,max-power-motor,5,27 days ago
229,0xd752337047952,moonpay.eth,5,5 days ago
230,0x914f4d27761ed,,5,20 days ago
231,0x2999377cd7a7b,josie,5,5 months ago
232,0x3285ba409c0bd,ovanft.eth,5,4 months ago
233,0xd7e077576f13e,ernestomorales.,5,4 months ago
234,0xe8723d26ad5f7,jmg,5,2 days ago
235,0x6abc0b05b5542,superior.eth,5,9 months ago
236,0x076d14b6d6174,,5,1 year ago
237,0xa0bc78c67d082,,5,
238,0xf857935c5802f,,5,28 days ago
239,0x4f3a120e72c76,,5,8 months ago
240,0x3f17244f636f1,kikuchiyo.eth,5,6 months ago
241,0x81b9a5f21efdb,valko.eth,5,2 months ago
242,0x560b9244a2fdc,,5,4 years ago
243,0xc8c115dcb2910,,5,4 years ago
244,0xc830eb280887e,,5,7 months ago
245,0x1d28a703ab06b,runhot999-vault,5,1 month ago
246,0xaec98826319ef,,5,1 year ago
247,0xc46f437244770,,5,4 years ago
248,0xfaf9f63baf57b,vr-punk.eth,5,8 months ago
249,0xbbaf6df069adf,,5,5 months ago
250,0xbcda185bbb2ff,,5,
251,0x51306877c61df,,5,4 years ago
252,0x00000217d2795,shittybank.eth,5,1 month ago
253,0x7797cf5b68bb6,,5,4 years ago
254,0xe2cea50ba5a30,,5,1 day ago
255,0xc6400a5584db7,,5,3 months ago
256,0x7224a1a8750d7,,5,9 months ago
257,0xec7641e298af0,sillytuna.eth,5,9 months ago
258,0xebf02c6e12c3e,Zonked,5,8 months ago
259,0x0f576fe0a916c,longling.eth,5,8 months ago
260,0xce7a9f981a2a7,,5,1 month ago
261,0x52ad8f3c506aa,Novo311,5,8 days ago
262,0x84d34f4f83a87,,5,5 months ago
263,0xffa914c83d851,bighuni.eth,5,6 months ago
264,0x87b1702a5a31f,,5,8 months ago
265,0xbac42c9b32e57,krustypunk.eth,5,2 months ago
266,0x79bc173933cd8,,5,
267,0xe9562d66f405b,,5,8 months ago
268,0xb0906862b2197,nicktran.eth,5,8 months ago
269,0xb4d8b83b41dd6,,5,
270,0xff0bd4aa34967,,5,1 month ago
271,0x7eb413211a9de,n0b0dy.eth,4,7 hours ago
272,0xc40df87e16339,tappy.eth,4,5 months ago
273,0xcaf6fd54fb74c,capital_izm,4,3 days ago
274,0x3042887f97821,,4,2 days ago
275,0xbb372224d0d87,,4,3 months ago
276,0xeefec5734f649,perceptive.eth,4,1 year ago
277,0xd72465a72b359,,4,
278,0x863c9aade08c7,,4,3 months ago
279,0xfab9b89d9a031,,4,8 months ago
280,0x2079c29be9c80,luggis.eth,4,9 months ago
281,0x1a04fe543a20a,,4,
282,0xe0baf312b5f8c,,4,
283,0xcfd6960d32f46,,4,
284,0xe16cbb8573885,,4,5 months ago
285,0xd72bb0961368f,pleurer.eth,4,4 months ago
286,0xb1acfee71abf9,,4,
287,0xee45124d3c2a3,hammerheadz.eth,4,5 months ago
288,0xc22e7d56806ab,bkbollinger.eth,4,8 months ago
289,0x534c8bc9781a8,luca.eth,4,1 month ago
290,0x303052148a78a,Pixls,4,4 months ago
291,0x9b5aaa36aa323,,4,7 months ago
292,0x8fb3a8bd22bde,,4,
293,0xc06dbddf5b059,,4,1 year ago
294,0x1d337f7e29742,,4,8 months ago
295,0xebf1db23ec6b9,,4,19 days ago
296,0x0a690b298f84d,redlioneye,4,13 days ago
297,0x38a161d47f01b,somewhere0x.eth,4,23 days ago
298,0x09bdf0efdffdb,warrbos.eth,4,3 years ago
299,0x0a28cb91b619f,,4,
300,0xc46db2d89327d,Deeze,4,7 days ago
301,0xcca6db72563f2,,4,
302,0x1b378a53a0a21,te.xyz,4,2 months ago
303,0x04fd71a7c80de,,4,1 month ago
304,0x606e83ad850a2,,4,4 years ago
305,0x3fba2d2da359a,,4,4 years ago
306,0xb716b043e76d2,,4,4 years ago
307,0xa8aaa1f0abdf8,,4,4 years ago
308,0x6c22fa46cb7fa,,4,4 years ago
309,0x88810436096cb,,4,4 years ago
310,0x4154245739a63,thebinocollecti,4,14 days ago
311,0xf1e1c701b49b1,norcalguy.eth,4,6 days ago
312,0xe0fa4a19c108e,fik.eth,4,12 days ago
313,0xb5e6acc6cbb5d,,4,1 month ago
314,0xee269a7968a99,,4,
315,0x9ef55a3cb657f,,4,4 months ago
316,0xed47015bb8080,,4,6 days ago
317,0xb0dafc466871c,thecitadel.eth,4,8 days ago
318,0xe5442041fd024,,4,6 months ago
319,0x9ad613e2f47d9,,4,29 days ago
320,0x6d5596d228c44,,4,10 months ago
321,0x38b80aa63aca0,,4,7 days ago
322,0xf65ea2be0340d,,4,
323,0xb9fddbd225b6c,,4,1 year ago
324,0x068315ebcbc30,,4,1 year ago
325,0x7af6ecd8c7bfe,biancademedici.,4,6 days ago
326,0x02c52eaedfdf3,,4,6 months ago
327,0x4c3f9010c431d,teejayortj.eth,4,3 months ago
328,0x3fa5b646b1927,synyster.eth,4,2 months ago
329,0xc79b1cb9e38af,,4,8 months ago
330,0x994f16b760e55,wigglez.eth,4,1 month ago
331,0x2b941072f0cc2,jzchew.eth,4,1 month ago
332,0x930af7923b8b5,,4,6 days ago
333,0x18f2368ab4816,casualfarmer.et,4,10 days ago
334,0x5f1c528dff936,,4,1 month ago
335,0x2f44fb58135ae,,4,8 days ago
336,0x2e2e26ba38ed2,,4,1 hour ago
337,0x5320f1fbf3a6a,,4,6 months ago
338,0xbf30d1a29d191,,4,3 months ago
339,0x271b97fcbd218,,3,
340,0x9494e0d6d8407,whitetusker.eth,3,1 day ago
341,0x1e36a5979c613,7478,3,2 months ago
342,0x999e77c988c4c,,3,8 months ago
343,0x3aa485a8e745f,,3,6 months ago
344,0xeca588e75c8eb,zazpowered.eth,3,4 months ago
345,0xcca410444fb27,,3,2 months ago
346,0x92ed9731d907b,,3,1 year ago
347,0x1b50383312c24,,3,5 months ago
348,0x55e94e836f312,,3,10 days ago
349,0x1d163a711f07b,,3,7 months ago
350,0xd985bd504d737,,3,1 month ago
351,0xcec3dc9edb111,,3,3 days ago
352,0xca5e7f4cfef82,,3,11 days ago
353,0x3aeacb8c72350,,3,8 days ago
354,0xe896e539e557b,,3,3 months ago
355,0x905f48cbaaaf8,,3,5 months ago
356,0x78edda5728849,,3,8 months ago
357,0x9e67d018488ad,WuTangClan,3,1 month ago
358,0x303662b02e1a0,,3,8 months ago
359,0xdb2b36c24064a,skidbladnir.eth,3,3 days ago
360,0x6d6a443ed637a,,3,3 months ago
361,0x25cf94d7a7147,,3,
362,0x4548d49846059,,3,
363,0xee3766e4f996d,EliteCats,3,10 days ago
364,0x6456f20453a38,studio137.eth,3,8 months ago
365,0x4dfac347cc148,,3,8 months ago
366,0xbf8f78b193070,,3,4 months ago
367,0x0d4428c8e62e8,💎dave.eth,3,19 days ago
368,0x6bb971430554e,,3,1 month ago
369,0x54ac13dbf807a,,3,
370,0xfed93f0ad93ff,0xrodo.eth,3,10 days ago
371,0x3be1340886287,,3,
372,0x35126e6e02e4d,,3,10 months ago
373,0xea08297a6cab2,thehundredsishu,3,13 days ago
374,0xd9c980bb39530,,3,3 months ago
375,0x40145f291ce12,,3,8 months ago
376,0x9cbd7d0a64c87,,3,
377,0xd6597398fb49a,,3,1 year ago
378,0xff70ec37a5d63,,3,15 days ago
379,0x113d754ff2e6c,😶‍🌫.eth,3,4 days ago
380,0xf1ad946ae30a2,,3,3 months ago
381,0x1e32a859d69dd,straybits.eth,3,5 months ago
382,0x050a3bf4cc689,kobe24o.eth,3,2 months ago
383,0xa80be8cac8333,0xa80be8CAC8333,3,1 month ago
384,0x97e9a4f24a962,,3,1 month ago
385,0x470de4d9f1bdd,,3,1 month ago
386,0xd0c877b474cd5,Coldie,3,11 months ago
387,0x6b847b7014c7e,,3,
388,0xb10c46d6af070,,3,
389,0x68f84b647841f,,3,5 months ago
390,0x12d39d022ca85,,3,3 months ago
391,0x3185fad637cf5,dereklin.eth,3,5 months ago
392,0xb79cd7662a50e,deafbeefvault.e,3,13 days ago
393,0x384bfb892fee0,joshuad.eth,3,4 months ago
394,0x9626d13516268,,3,2 months ago
395,0x07ecd913d1d43,,3,5 months ago
396,0xe42abe865a7f8,ponkz.eth,3,1 month ago
397,0x215fedd5780c3,,3,1 year ago
398,0x94c1d7488476e,malcode.eth,3,9 months ago
399,0x9ca9b5e9f5917,,3,6 months ago
400,0x534a0076fb7c2,,3,1 month ago
401,0x278dcbe75441a,na,3,1 year ago
402,0xe703f231ab056,colborn.eth,3,7 months ago
403,0x3ab536bdc51f5,,3,3 years ago
404,0xc20cad7162e9f,,3,4 months ago
405,0xd90ffcc406796,👽🦍🧟‍‍.eth,3,2 days ago
406,0x592a51330f1e8,,3,7 months ago
407,0xeb5889fbe37e2,,3,4 years ago
408,0x8885224cf8ee2,,3,4 years ago
409,0xcd8eddd0a2704,gr8wxl,3,3 months ago
410,0x21faa7406de0e,,3,
411,0xdd3a68eb8324c,,3,3 days ago
412,0x007508a6c38bc,,3,21 days ago
413,0xa6e2e910515e6,nakamotosatoshi,3,4 days ago
414,0x54863db19c3f0,,3,8 months ago
415,0x8449593b8e9d4,,3,2 years ago
416,0x747be18e99a6c,,3,4 years ago
417,0x47d4f20ae83bc,doh.eth,3,1 minute ago
418,0x9345d6de501e3,,3,4 years ago
419,0x4239974d0b49c,,3,4 years ago
420,0x469b00cc462c7,,3,
421,0x042ebbd517908,,3,4 years ago
422,0x000001f568875,bohemian.eth,3,4 months ago
423,0xbf9888cb20fcf,,3,4 years ago
424,0x05083ffbadead,,3,1 year ago
425,0x96e1199931a9e,jabulon.eth,3,1 month ago
426,0x9f586e4dfe9f4,,3,6 months ago
427,0x54be3a794282c,dingaling.eth,3,9 months ago
428,0x1df610099af9e,ab🐺vault.eth,3,21 hours ago
429,0x78e96be52e38b,,3,8 months ago
430,0x87f8069503ceb,,3,8 months ago
431,0x4b4c13434aac5,pinkapedoodle.e,3,9 months ago
432,0xd7f063cd4d616,,3,
433,0x3d4dfeb35981b,,3,1 month ago
434,0x7c0830c2fc55e,,3,23 days ago
435,0x045f165732d0f,,3,3 months ago
436,0x961d63a5c37af,,3,9 months ago
437,0xb42bfb72c6b6a,,3,
438,0x9f8534b8d266c,,3,1 month ago
439,0xa66d568cd146c,,3,4 months ago
440,0x72bf7f68edebd,,3,
441,0xc3bed4188d1bd,,3,3 months ago
442,0x3432b45b9ee95,3fm.eth,3,9 months ago
443,0x0dfe9c8263ad3,7572.eth,3,3 months ago
444,0x16c20b66a1cf6,threekeyslab.et,3,4 days ago
445,0xd3d7e517eac43,,3,8 months ago
446,0x20eadfcaf91bd,,3,1 year ago
447,0x29664e652ca8f,,3,1 month ago
448,0xc330219f80328,,3,
449,0x96a6913b41b99,darylm.eth,3,4 months ago
450,0x64d1cb399ac89,,3,1 day ago
451,0xbf23b32f95694,,3,21 days ago
452,0xa420d99a9859c,,3,8 months ago
453,0xc15753ae3b609,hullofrenz.eth,3,3 months ago
454,0x8e3934250212b,,3,9 months ago
455,0xd120cf3e0408d,,3,11 days ago
456,0xe9d1ee843e363,,3,
457,0xf7f7d74ce9fc6,punk4553.eth,3,3 months ago
458,0x2ac38fd88c120,,3,5 months ago
459,0xee20f88c3382d,,3,
460,0x3496f3600070c,eccehomo.eth,3,
461,0x5399a09fc5d00,scalynelson.eth,3,10 months ago
462,0x6b6ae848f555f,jonathanlittle.,3,21 hours ago
463,0x796dff9d9cdb0,,3,7 days ago
464,0xdf612c887e88f,,3,15 days ago
465,0x044155f2a0986,,3,8 months ago
466,0xdf4c62f992ab2,,3,5 months ago
467,0x60e23da7a0b22,azpunks.eth,3,13 hours ago
468,0x541d7bbcfb54c,,3,15 days ago
469,0x0e94af7a71527,misterwick.eth,3,4 months ago
470,0x7a30229cffd81,,3,26 days ago
471,0x6ca7efa27a128,,3,
472,0x43fb99c5bc88c,,3,22 hours ago
473,0x571c513df5624,,3,18 days ago
474,0x40d775827365a,,3,2 months ago
475,0xee075d1677351,panksy.eth,3,3 months ago
476,0x6491bce963fca,,3,8 months ago
477,0x05e06f2ec24c0,,3,1 year ago
478,0xea2606df39ba3,,3,2 days ago
479,0x15741cffe2d0a,,3,
480,0xb6cf25f5cf8a1,kjames.eth,3,1 month ago
481,0xbe310614d5350,,3,
482,0xded1702a5f96b,,3,1 month ago
483,0x4907911cf8911,ajvcold.eth,3,
484,0x4074bc05a89f1,cashtronaut.eth,3,3 months ago
485,0xc9de4bcf2d3c4,magicshen.eth,3,12 days ago
486,0x50ec3708531ac,,3,3 months ago
487,0x41a47ff6026f3,0xhotdog.eth,3,5 months ago
488,0x2536c09e5f569,xaix.eth,3,5 months ago
489,0xbd4aae63bd1bc,familyportrait.,3,8 months ago
490,0x0947ace3a3a9b,,3,17 days ago
491,0xd038d146dfab6,,3,
492,0xf40b3d16ae262,,3,8 months ago
493,0x064cfc529ed6d,,3,1 year ago
494,0x7c453212b2522,,3,
495,0x8bb07635c7126,,3,4 months ago
496,0xf3b0f4411c77c,spritzlord.eth,3,13 days ago
497,0x08061585f1600,,3,
498,0x82b1f29c56082,ross_VRON,3,1 month ago
499,0xf082e4c979839,,3,28 days ago
500,0x61d9d9cc8c320,,3,7 months ago
501,0x285ce8250bda1,,3,3 months ago
502,0x7efe3ac6ec0ff,🎰🎰🎰.eth,3,3 months ago
503,0xb5b84e29b7191,,3,2 months ago
504,0xfe1eceed98035,,3,
505,0xe5200a0066e98,,3,2 months ago
506,0xff0cb0351a356,,2,8 months ago
507,0x1cce316fddae4,,2,6 months ago
508,0x453b89b1bda02,,2,
509,0xf897c8038522f,cosmickramer.et,2,8 months ago
510,0x123432244443b,mian.eth,2,1 month ago
511,0xa5d76cee9e7df,,2,1 month ago
512,0x9cc5f02499328,,2,3 months ago
513,0x31231c1d15d33,,2,
514,0x9dd156ed71a84,mahagaber.eth,2,
515,0xf9ff236d8311c,,2,6 months ago
516,0x9653d3bea3b89,,2,
517,0x1e06861976d48,0xblak.eth,2,1 year ago
518,0x00668bd79ede0,zonted,2,1 month ago
519,0x5f9d41289ad44,daimon.eth,2,8 months ago
520,0x132ddca39c50d,,2,
521,0x401982cbe24f6,realcryptomo.et,2,1 day ago
522,0x7e455caac23eb,,2,1 month ago
523,0xd332278a641bf,,2,
524,0x0cd19422e18d4,,2,
525,0x607dbcc8f8a50,,2,
526,0x23d23d05eca97,,2,1 month ago
527,0xabbd5b2b0b034,,2,
528,0x6fb3ae4ecf5a4,,2,3 days ago
529,0xc98a513970f32,,2,
530,0x6959e3ed52ca1,,2,
531,0x45f9703424da8,vibedog,2,2 years ago
532,0x5b713f9e1e51d,adamlindemann.e,2,4 months ago
533,0x9ec1a8c290d8e,,2,8 months ago
534,0xac780038c3b42,,2,1 month ago
535,0xf69d00d6b7379,,2,3 months ago
536,0xf5993d2217ab9,apemodevault.et,2,14 days ago
537,0xb35d334b94e76,tompj.eth,2,3 days ago
538,0x36c217c052260,,2,2 months ago
539,0x38d0dbecda3b8,,2,25 days ago
540,0x04e91ce58a44c,,2,7 months ago
541,0x4d26d18d169d9,,2,23 days ago
542,0xa374a95b8246c,Cryptokkie,2,1 month ago
543,0x5df5078ae2e65,craigoryvault.e,2,20 days ago
544,0x485be95e7c865,,2,8 months ago
545,0xf8a065f287d91,brennen.eth,2,13 days ago
546,0xdbf58407556c9,,2,1 year ago
547,0xe10824fd1ffb9,robers,2,6 months ago
548,0x105cb4e2818a3,jaft.eth,2,
549,0x8defa10ca93db,,2,3 months ago
550,0x92662f46cf601,,2,6 months ago
551,0x6f574fd71d146,,2,
552,0x038f720e10999,,2,1 month ago
553,0xc4b9d206b5a46,,2,3 months ago
554,0xe8aea1bba7aec,,2,3 months ago
555,0xb6c5b1a489606,robertthewhale.,2,6 months ago
556,0x717a578e4a157,,2,
557,0xedcb09c4e7f5c,,2,9 months ago
558,0x96333170e351b,,2,1 year ago
559,0x8bd7a05a48d78,Liber8HongKong,2,1 year ago
560,0x08882cd344a56,,2,
561,0xd3804a3c24597,,2,
562,0xda75f63b9cb1c,leveloneleveltw,2,3 months ago
563,0xc10b17d37d8eb,,2,8 months ago
564,0xe9f9e959be311,,2,8 days ago
565,0xa1870d3cab6e9,,2,9 days ago
566,0xf77813a5af236,,2,8 months ago
567,0xc90bd3c51b96c,,2,
568,0x0e1f85949ca38,,2,
569,0xcc6c1d21e8474,batsoupyum.eth,2,11 days ago
570,0x22fa8cc33a423,,2,4 days ago
571,0xa15084e5c9649,,2,1 year ago
572,0x2e50b23af9a31,,2,1 year ago
573,0x28d8c3f9a6526,phillynft.eth,2,3 months ago
574,0xf7121277a5bc6,,2,8 months ago
575,0xaf297dec752c9,cryharder.eth,2,17 days ago
576,0x5e6ae73dfbe52,chrislyons.eth,2,
577,0x871fe6fb3744a,,2,1 month ago
578,0xc585d35fb8c9d,,2,8 months ago
579,0x3b87ecd73b67f,,2,
580,0x6b1297f88c025,,2,11 months ago
581,0x3612b2e93b49f,rudya.eth,2,1 year ago
582,0x02a1653b151ba,,2,8 months ago
583,0x600f9e6c12edc,,2,
584,0xe3e6917802ebf,theoverview,2,1 year ago
585,0xe545c0d41c622,ikehaya-nft.eth,2,1 month ago
586,0xb394f1aa30ba8,Hans,2,2 months ago
587,0x8c173b6579c34,honoraryape.eth,2,1 month ago
588,0x4925fc8c5a876,,2,8 months ago
589,0xb890f264b1a75,gvg.eth,2,7 months ago
590,0xac31cd111b1d1,,2,
591,0xffb6d97bd1e7b,lol.eth,2,3 months ago
592,0xbf8afa76bcc2f,,2,10 days ago
593,0x0a53e28f2f7b2,reasonablysized,2,7 months ago
594,0xad3372cd20955,protein.eth,2,11 months ago
595,0x92fb805e5da36,,2,
596,0xa99a76dddbb96,,2,10 days ago
597,0x4466f4da5ffe6,,2,
598,0xc61aa3a9cc5fe,,2,1 year ago
599,0x1fafa69cfbe02,cartagra.eth,2,11 months ago
600,0x6a6f20961aaab,,2,1 month ago
601,0x93518c0a2ef77,,2,
602,0x16c5d765eda96,,2,1 year ago
603,0x9fa29cacf57df,,2,1 day ago
604,0x91338ccfb8c0a,punktrader.eth,2,19 hours ago
605,0x74d430673640c,,2,
606,0x68d4a6fad7b56,,2,1 year ago
607,0xab6ca2017548a,mondoir.eth,2,4 months ago
608,0x4d3dfd28aa358,,2,
609,0x4216d03560324,,2,4 months ago
610,0x24e267d13314d,,2,8 months ago
611,0x289f9f432fb25,,2,6 months ago
612,0x31ac9896f4ef5,,2,1 year ago
613,0xbd302b98060fe,,2,15 days ago
614,0x60417ddabe95d,,2,
615,0xf1bd1c881a1e9,pepperpig.eth,2,
616,0x4e84a91a450ae,,2,29 days ago
617,0x2df2c9e26dba3,,2,3 months ago
618,0x338fd148fa51c,,2,2 hours ago
619,0xc8b36221cc391,djmirage.eth,2,
620,0xd3b38f645ac56,,2,1 day ago
621,0x2ab1735ab09f5,,2,3 months ago
622,0x279818c822e5c,,2,9 months ago
623,0x86292f24afffe,,2,6 months ago
624,0xf1fcffba10de3,l3xc.eth,2,6 months ago
625,0xcba7a88c8a62d,,2,4 months ago
626,0xc70a09dd6944c,daLenz_vault,2,3 months ago
627,0x5ac996f059bdb,mbl267.eth,2,8 months ago
628,0xcd947463c5673,,2,5 months ago
629,0xb967d330bd47a,,2,
630,0x3b99bf61c494e,impaler.eth,2,4 months ago
631,0xe77a08d151397,,2,
632,0xf4e423ce220e4,,2,2 months ago
633,0x12ec6a7952d62,,2,4 months ago
634,0xbb416feca6c36,,2,2 months ago
635,0xa910fab85e318,,2,1 year ago
636,0x5994cb6bbd2de,,2,
637,0xb1cc18a441c35,,2,20 days ago
638,0x141322060568a,,2,4 months ago
639,0xf2ac533498585,,2,8 days ago
640,0x5ca618c19cc2c,,2,9 months ago
641,0x0154d25120ed2,,2,17 days ago
642,0x21a0a2699f69b,kfactorvault.et,2,7 months ago
643,0x3d0ad943a2217,,2,5 months ago
644,0x7761a4b62d9f2,,2,
645,0xc7e681e5b71b4,,2,
646,0x08a9ead5bd9af,0x-hodl.eth,2,1 day ago
647,0x584075b9f3b49,,2,8 months ago
648,0x186980d30a5b7,ethie.eth,2,15 days ago
649,0x333345727be2e,,2,6 months ago
650,0x58dc71f3b3b52,,2,3 months ago
651,0xe15e67b8c0108,,2,11 days ago
652,0xc842ce7214a14,yeyo.eth,2,1 month ago
653,0x3177a46ef4afc,,2,
654,0x1e5ce6f088fd0,,2,2 months ago
655,0x8884f2af43bcb,alien3443.eth,2,4 years ago
656,0xd6d6869333c5c,,2,4 months ago
657,0xeca9c66692bb0,gen0xvault.eth,2,8 months ago
658,0x8ca246551ffa9,millennia.eth,2,5 months ago
659,0x12f8dee62d483,rhayo.eth,2,1 month ago
660,0x730fde923a757,,2,
661,0x28679a1a63212,emo.eth,2,9 months ago
662,0x4cd2c410884ee,,2,
663,0x24ac005adcbb3,,2,
664,0x24f5ee0991f95,,2,10 days ago
665,0xa4d07c23f28a1,,2,1 month ago
666,0x708e3785ef537,,2,6 months ago
667,0x8bdf6b5295958,♥♣♦♠.eth,2,3 days ago
668,0x8a4f86fa90e45,,2,1 year ago
669,0xab4ead4014c3e,vault.snow.eth,2,22 days ago
670,0x0184670b561ce,,2,
671,0x0320e2787d5c6,,2,3 months ago
672,0xf91c7f3349f72,,2,
673,0x1e8d692986ca1,singlecap.eth,2,3 months ago
674,0x023ef73d4c6de,,2,16 days ago
675,0x8e6ebf8bdca93,kakis.eth,2,4 months ago
676,0x8bf6efbf66d88,fugio.eth,2,5 hours ago
677,0xa002c3a0c7eb9,,2,
678,0xee8dbe1656825,,2,5 days ago
679,0xaeab5ad5a2ff3,ethereal.eth,2,2 months ago
680,0x6e1271abcc021,,2,1 month ago
681,0x97916e27632ec,,2,1 month ago
682,0xb12f1f37767d1,0823vault.eth,2,3 months ago
683,0x16257cf909d51,,2,
684,0xbd9b7373aac15,AlottaMoney,2,1 year ago
685,0x9cd1bf37df21e,,2,
686,0xc876b346d50c4,e88vaultx.eth,2,3 days ago
687,0x58f18776627c3,,2,4 years ago
688,0xd1295fcbaf56b,jckbtchr.eth,2,4 months ago
689,0xe28470253f0c9,metamagicvault.,2,13 days ago
690,0x55530155460d8,,2,1 year ago
691,0x90b6539874e8e,,2,7 months ago
692,0x906e55e1035c8,,2,6 months ago
693,0x655c91025a49e,Misha,2,4 months ago
694,0xd6f487c29be27,,2,
695,0xb733e52dff6d0,vault.davecorp.,2,26 days ago
696,0xeb26e394da8d8,trademuch.eth,2,
697,0x66148822219e9,,2,
698,0xe9e7b800ec5fc,,2,26 days ago
699,0x96cda18688cb9,,2,4 years ago
700,0x011a8ce98ca91,,2,2 months ago
701,0x4ecf4bc905107,cryptoboomer.et,2,14 days ago
702,0xf47ff49820805,bigmoondog.eth,2,3 months ago
703,0x621f2a5ef987e,0xrarechad.eth,2,24 days ago
704,0xea4396b0bb1de,nff.eth,2,1 month ago
705,0xa601802e8a12e,444.eth,2,10 days ago
706,0x17654664d0702,,2,8 months ago
707,0xa3274c2223cb6,,2,
708,0x28784d9a5052b,,2,6 months ago
709,0x81facc69908d9,Ajiyl,2,1 month ago
710,0xe675218bba7ec,,2,4 years ago
711,0xfba169cc807ed,,2,7 months ago
712,0x8a873b31646df,0x8a873b31646df,2,3 years ago
713,0xc0d95fbb7bf19,dafky2000-ledge,2,1 month ago
714,0xb2db61e6e2e84,,2,
715,0xbbe0ca2546ae0,,2,7 months ago
716,0x1e5fe56aa8f66,,2,1 month ago
717,0xc3b94e21337e9,punksdeddao.eth,2,4 months ago
718,0xe1994b2fd8310,,2,8 months ago
719,0x7cfa31ad04655,,2,1 year ago
720,0xde0b9c04571ff,,2,1 month ago
721,0x7701adc43d5d3,wew.eth,2,1 month ago
722,0x9a6a87671ce09,,2,4 years ago
723,0xa4ba53ef39037,cye.eth,2,11 months ago
724,0x0d2983a4d9e3b,,2,4 years ago
725,0x005612ffb145f,,2,4 years ago
726,0x6f78c75be220a,,2,1 year ago
727,0x2b616914ada84,,2,9 months ago
728,0x93d2b052a313e,,2,4 years ago
729,0x838ca689c7035,,2,4 years ago
730,0xfbd8a3481bb14,,2,7 days ago
731,0x849c1d8452126,,2,4 years ago
732,0x7ba6527419152,0xmunger.eth,2,7 months ago
733,0x3fc1753c90421,,2,4 years ago
734,0x9b11aa03c7269,,2,1 year ago
735,0xa73dc2f955bca,iamnoname.eth,2,11 months ago
736,0x6f35b0cfc58eb,Cry,2,22 days ago
737,0xd771b0c6ab94c,,2,
738,0x2128de0abe7a0,,2,4 years ago
739,0xa060870b4824b,,2,4 years ago
740,0x2be48b54cf9d4,,2,
741,0xeae448e1537aa,,2,2 months ago
742,0x8a5c8ed8ba574,alloutta.eth,2,
743,0x311a9ef07f16a,,2,1 year ago
744,0xbda7dfa62d646,,2,
745,0x4bc412f54d94e,,2,12 months ago
746,0xde62377a6ccbc,,2,6 months ago
747,0xb426e66ccc73e,,2,
748,0xf224837e13b1a,,2,3 months ago
749,0x4d0bc03aae123,punkcouple.eth,2,7 months ago
750,0xa555d1ee16780,noun40.eth,2,6 months ago
751,0xaf016ec2afd32,punk4730.eth,2,
752,0xd2a515f2dc07b,,2,
753,0xed3c3bffcf147,kevinkennis.eth,2,9 months ago
754,0xcfc8e0aeebed4,,2,9 months ago
755,0x46ae5b30edfde,himesta.eth,2,1 month ago
756,0xf42da2860c700,ajin.eth,2,1 month ago
757,0x4da94e682326b,dealwithzhukov,2,13 days ago
758,0xca147eb37135b,tyler5.eth,2,
759,0xdc8eb8d2d1bab,treasures.eth,2,4 months ago
760,0x3dde27c237944,,2,1 year ago
761,0x16d90c5fad600,,2,
762,0xf797770e8f475,,2,
763,0x8753f62d32f45,,2,7 months ago
764,0x83870200240f1,,2,4 months ago
765,0xa163a1feaea96,sepanik.eth,2,1 year ago
766,0xf7a8f04c7fe7c,flx.eth,2,8 months ago
767,0x8deeb3ac25fd5,,2,4 months ago
768,0x71796b933a876,,2,
769,0x09758e7d6acee,,2,
770,0x535278f478c17,,2,1 year ago
771,0x07bc45627de24,,2,9 months ago
772,0x790b5231d3504,,2,
773,0x0601d0235645a,,2,1 month ago
774,0xe8f3731b1c89c,,2,4 months ago
775,0x0b390500e5154,,2,9 months ago
776,0x190816d8c1063,,2,13 days ago
777,0xc665e963803ea,,2,
778,0xcaf473e372348,,2,7 months ago
779,0xe5f94006325cc,,2,4 months ago
780,0xedec6aa81e328,,2,
781,0xb425debae63f4,,2,4 months ago
782,0x319d216407f75,,2,8 months ago
783,0x99509e88aeae3,victormosquera.,2,1 month ago
784,0xf52393e120f91,moderats,2,1 month ago
785,0x500f2e800003f,cryptocoiners.e,2,12 days ago
786,0x363ef108036c3,,2,11 months ago
787,0xbf6894e15b8d4,,2,
788,0x294c7eb47fa5d,,2,10 months ago
789,0x04c36d1373b69,,2,2 days ago
790,0x4947da4bef9d7,,2,9 months ago
791,0x96ff1d6b5e9ca,8paul.eth,2,8 months ago
792,0x940e665891ac1,,2,
793,0x997bd6938948e,,2,7 months ago
794,0x6625cbce8bcc1,,2,
795,0x20cf73d6e0889,,2,5 months ago
796,0xef2ea29ff47e6,,2,
797,0x6f77c19c3d4d7,joerandom.eth,2,4 months ago
798,0x73524bd95c988,suneth.eth,2,1 month ago
799,0x2423b65c54bcf,polarvault.eth,2,16 hours ago
800,0x77d550883410f,,2,11 months ago
801,0x3df7ebfefe287,,2,7 days ago
802,0x2719ae45285b2,,2,7 months ago
803,0xdd114818ee4a6,,2,6 months ago
804,0xfb39a75697b37,niftyhodler.eth,2,4 months ago
805,0x7e0f2bee79885,,2,
806,0x591660bf3ae48,,2,8 months ago
807,0xc43473fa66237,tycoon.eth,2,
808,0x433f6a853d8e1,,2,1 day ago
809,0xc8dda50435619,,2,
810,0xf1d601dd082ff,,2,1 year ago
811,0x53774b5e18cbd,,2,4 months ago
812,0xa397d02928aca,,2,21 hours ago
813,0x8d1efde271a28,,2,
814,0x5b7b543e7f1e2,nemavand.eth,2,
815,0x3b93cbfb99560,whl.eth,2,6 months ago
816,0x4c4083b2cc9d4,,2,9 months ago
817,0x5cb82c7811204,,2,11 days ago
818,0xb09861246e414,bobeglz.eth,2,9 months ago
819,0xddbc557825164,,2,
820,0xe0cc6ab3c0b5c,,2,2 months ago
821,0xb2af1b81283c8,,2,13 days ago
822,0xe323fd0a91bbf,,2,
823,0x97db27c92bc77,,2,3 days ago
824,0x850b57fa5e6cf,,2,1 year ago
825,0x8d80dac6f8ce4,whales-wife.eth,2,9 months ago
826,0x73ee162482649,patfives.eth,2,1 year ago
827,0x1c051112075fe,valleypunk.eth,2,8 months ago
828,0x525ba4df7a011,,2,12 days ago
829,0x9acbb54d3d5ae,,2,8 months ago
830,0xa4288ba106268,,2,9 months ago
831,0x98e639b648144,,2,7 months ago
832,0xfe61b0164168b,,2,8 months ago
833,0xc4cca7049fba0,smilejack.eth,2,4 days ago
834,0xc50bc863f6579,,2,6 months ago
835,0x7d19baa0640c3,1606.eth,2,4 months ago
836,0xf5c1d55e94726,,2,3 months ago
837,0x63a21b78ec651,what-if-i-told-,2,3 months ago
838,0x2f8a61f9bfead,,2,3 months ago
839,0x8836c14dc2b96,0xjd.eth,2,1 month ago
840,0xb47e3cd837ddf,,2,
841,0x884befa765a96,,2,
842,0x9c0a836384a2f,,2,7 months ago
843,0xbcb925ea8d433,,2,
844,0x4d1f556f805a1,,2,
845,0xb9f5039273a63,adaugelli.eth,2,1 year ago
846,0xbdaf053e8cd9c,,2,
847,0xe513094d53f92,,2,4 months ago
848,0x33a3c8e9940fd,,2,
849,0x10e4ea32801cf,cave.thegoodone,2,18 days ago
850,0x6f7ef86135323,,2,1 month ago
851,0xac3b04591aeb4,mranderson3571.,2,
852,0xe48ab528f2b51,metasnomadic.et,2,8 hours ago
853,0x1251122f1d77f,,2,1 month ago
854,0x997eda8be8c50,,2,9 months ago
855,0x0cacc6104d8cd,,2,5 minutes ago
856,0x283d4f6752f4d,,2,1 month ago
857,0xb9f41e10df1e8,drewsnfts.eth,2,3 months ago
858,0x06d477cddcf3f,,2,
859,0x36ed2d75a82e1,cryptokemon_par,2,27 days ago
860,0x5c41720db0623,official-mt1000,2,4 days ago
861,0x1844cc9d499d9,,2,22 days ago
862,0x11d1b553bd0cb,,2,
863,0xa62da2ea9f5bb,bonafidehan.eth,2,
864,0x05936f6a5ea9a,,2,6 months ago
865,0x0713a6c6fd18b,,2,12 days ago
866,0x321efa6e20cb4,evantanvault.et,2,17 days ago
867,0x6ecb6038d9236,fvckrendervault,2,1 month ago
868,0xe6c38d64119f1,,2,5 months ago
869,0x671675ee5a9eb,,2,
870,0x6da7a772fa68a,,2,
871,0x0c047b2464b78,,2,
872,0x7c04786f04c52,wearehiring.eth,2,1 month ago
873,0xc7eb1916a4d9c,noforvault.eth,2,
874,0xc53295d44a1a7,,2,
875,0xea8bf9cfcde59,,2,3 months ago
876,0xbce3bd3b20694,bibdieufr,2,2 years ago
877,0x1fca36eccfdf8,,2,8 months ago
878,0x0371bc3b892c5,,2,
879,0x8b007e2d34faa,stilllnox.eth,2,3 months ago
880,0x76b588e62f9ce,,2,
881,0x989c7f78b7c2a,,2,6 months ago
882,0xb8768094e62b2,,2,1 month ago
883,0xeabf797f9e2d8,,2,8 months ago
884,0xe41e1256ec170,,2,
885,0xbd19b1833c7a4,garth.eth,2,1 year ago
886,0xdc7b5db4ff464,douzo.eth,2,6 months ago
887,0x21426471ebf0b,,2,21 days ago
888,0x9769334fc8827,,2,
889,0x9616e39917f7c,,2,4 months ago
890,0x83d66b34c20d1,,2,1 year ago
891,0xdc546f477f273,BlackBoxDotArt,2,1 year ago
892,0x5f3fb82ba7d99,,2,8 months ago
893,0x8fc112b770bac,rareverse.eth,2,5 months ago
894,0xb386e736e1997,,2,
895,0x56cc38e1b0e35,,2,
896,0x065b7276f3a69,,2,1 month ago
897,0x5c5e96b31e1a6,,2,
898,0xe8054719d9a9a,,2,8 months ago
899,0xae7bca301c0c0,kenl.eth,2,4 months ago
900,0x85560dbef2533,,2,7 months ago
901,0xd14a49a968945,,2,
902,0xdcb48561ad264,,2,1 month ago
903,0xba40363026b0d,,2,
904,0x257c6def18238,,2,5 months ago
905,0x667f565a40b75,,2,6 months ago
906,0x6aea3ae169f39,,2,6 months ago
907,0xefcdfb566c10c,,2,8 days ago
908,0xbfd706113a65a,,2,1 year ago
909,0x5c7d3c121ae85,,2,
910,0x10a2dfb788a57,,2,8 months ago
911,0x8225acd14d2bd,,2,4 months ago
912,0xb53349160e387,pdx.eth,2,2 months ago
913,0xd481ee01b8825,,2,1 month ago
914,0xa743c8c57c425,,2,
915,0x2891a448d93c6,,2,10 days ago
916,0x4a8b9e2c2940f,,2,9 months ago
917,0x3d5569d3e5f4e,ghash.eth,2,8 months ago
918,0xde03d31d4eaf0,,2,3 years ago
919,0xa247f72c76981,,2,8 months ago
920,0xc72aed1438615,,2,6 months ago
921,0x10cc22fb156cc,carlpei.eth,2,3 days ago
922,0x2ad8227ff4a1c,,2,8 days ago
923,0xb52343dbb87db,,2,
924,0xc7882f13c2087,entropy4.eth,2,4 months ago
925,0x9b1a161bdb6cd,,2,
926,0x0950cb41f8b4c,,2,17 days ago
927,0x702e9e66a1008,,2,1 year ago
928,0x052ffed486e44,,2,3 years ago
929,0x6a0ed38200992,cryptokaiser.et,2,2 months ago
930,0xad4d70479cf92,mullet.eth,2,1 month ago
931,0x076c2669ad090,thebuckswin.eth,2,1 month ago
932,0x079ea571a3bf1,cdpunks.eth,2,3 days ago
933,0xcc72f778eedd8,shanedaniel.eth,2,3 months ago
934,0x967fb96af78fe,,2,3 years ago
935,0xe8c4156a19951,,2,1 month ago
936,0xebe7f3f59fe53,,2,23 days ago
937,0xc84350bce9259,,2,4 months ago
938,0xdde542d11949f,,2,
939,0xa7be95bc5e961,,2,
940,0x83f5eea3ba341,,2,9 months ago
941,0xc3bb8481be69b,,2,
942,0xa9d748a28a713,,2,1 month ago
943,0x0b4338671b26d,,2,3 months ago
944,0xaa47a4ffc9793,ecl.eth,2,1 month ago
945,0x2326d4fb27376,,2,4 months ago
946,0xeb1c22baacafa,richerd.eth,2,4 months ago
947,0x35896365927c1,bartholomewkuma,2,16 days ago
948,0xf142d7baff098,etoro.eth,2,3 months ago
949,0x76fb2ebe42951,,2,
950,0xea9724fe1b46b,,2,9 months ago
951,0x19771dbdfd5a3,,2,
952,0xa35b23d5229d1,,2,8 months ago
953,0xede64a571cfe9,ape1710.eth,2,7 months ago
954,0x658dd79a72f98,,2,2 days ago
955,0x9dcf985075d94,zkmonke.eth,2,6 months ago
956,0xe281b9d3de7a5,,2,5 months ago
957,0x8bebdb7f971d1,,2,21 days ago
958,0xceb8108f65d98,,2,
959,0xcb8a2e4d7465f,,2,7 days ago
960,0x98d365a3df971,kevwuzy.eth,2,9 months ago
961,0xda202a4e570e2,,2,1 year ago
962,0x91c782e0653e2,,1,5 months ago
963,0x6f493be1ca0d2,niftygal.eth,1,1 month ago
964,0x106ac341e36e9,nifty_man,1,13 days ago
965,0x38caf2d24a26a,,1,7 months ago
966,0x2082c5a3c08a4,kcannon.eth,1,7 months ago
967,0x9c5a74dbdb713,,1,7 months ago
968,0x581e2463e6705,,1,
969,0xdaf95396b9761,hano.eth,1,
970,0xa13cc7ee81ed7,1988.eth,1,4 months ago
971,0x2befb4c92c3af,vdp.eth,1,1 month ago
972,0xa954bb05156ea,,1,6 months ago
973,0x36e9552f095b7,,1,1 year ago
974,0xd8fdd6031fa27,,1,6 days ago
975,0x4d5cab5135271,,1,1 month ago
976,0x687ecbe143f6c,,1,3 months ago
977,0x0dc1c0cf5bc07,jaymesrosenthal,1,3 months ago
978,0x987dad22e28fc,beautifuldickbu,1,
979,0x2d6dbbe8e3040,,1,11 months ago
980,0xcce0b02948509,,1,
981,0x438ca4aedd7f6,,1,
982,0xfa53d837b5ddd,,1,9 months ago
983,0x5071f6651e53c,,1,1 year ago
984,0xfc108a9b7ede0,,1,12 days ago
985,0x900d60684b0ba,,1,3 months ago
986,0x749dd3c5ac6d3,,1,3 months ago
987,0x7b110010db3d3,,1,
988,0xbbf8ef0f64a96,,1,3 months ago
989,0x35860583266f6,fewocious.eth,1,9 months ago
990,0xb4460bdf3fe5b,,1,4 months ago
991,0x273dfe473df23,,1,20 days ago
992,0x9d6215a2b7dac,,1,
993,0xde69254d5a60c,,1,
994,0x706aec2c77832,,1,1 month ago
995,0x71bde65c9ac54,,1,
996,0x495d80221ad8f,,1,
997,0x28c695abc5f28,,1,8 months ago
998,0x2649c4628da55,,1,3 months ago
999,0x0c9afdb2b8fe7,,1,8 months ago
1000,0x5cea352e98a64,,1,2 months ago
1001,0x46316e182d560,heidiklumoffici,1,
1002,0x9de43abbcc3b0,thegardener.eth,1,23 days ago
1003,0x4710e331ccebb,,1,3 years ago
1004,0xee3e5579813c7,,1,2 months ago
1005,0xa885a24135ebf,,1,
1006,0x481676150018b,,1,8 months ago
1007,0xc924f3e3a0991,,1,10 months ago
1008,0x88a6d547577c9,,1,11 months ago
1009,0xc219cafde6855,,1,6 months ago
1010,0xb6e578b246061,,1,3 years ago
1011,0x5bfaffb8b8830,,1,1 month ago
1012,0xbc9802168bedf,,1,4 days ago
1013,0x5743e4384d214,shanev.eth,1,11 months ago
1014,0x6b978f747b051,,1,1 month ago
1015,0x56fbe14532417,,1,
1016,0xcb1df68fd314e,,1,
1017,0x589e4996f3abd,,1,
1018,0xcf74e42266de8,,1,11 months ago
1019,0x2b468e7950e79,,1,1 year ago
1020,0xa9d2028fa0825,,1,9 days ago
1021,0x344567f7b327c,,1,
1022,0x743b877a0f808,,1,8 months ago
1023,0xa5149250016aa,,1,7 days ago
1024,0x14637bfe08f62,q-nft.eth,1,8 months ago
1025,0x8d435d7b2d9bf,,1,
1026,0x867a49ca7dab7,,1,
1027,0x2476c29fcfebe,,1,
1028,0xa16a9fd8d572c,,1,8 months ago
1029,0x7372852d3829c,,1,
1030,0xe5ee2b9d5320f,foobardev.eth,1,6 months ago
1031,0x258fc9060735e,thepanda.eth,1,1 year ago
1032,0xf32c7013ddf9c,,1,
1033,0x9fdaafd74a0d6,,1,7 months ago
1034,0x9c01419b97dc2,,1,4 months ago
1035,0x53acf5f130e52,,1,8 months ago
1036,0xbf1c1119c6e34,,1,9 months ago
1037,0x8aa04ed102fcc,acmonides.eth,1,1 year ago
1038,0x1c0c4ea02e809,,1,7 days ago
1039,0xf72cf702779a8,,1,5 months ago
1040,0x6027b4c9ad98a,westcoastnft.et,1,7 months ago
1041,0x35508f0bbb1d0,,1,1 month ago
1042,0x5384b8987a3ca,,1,9 months ago
1043,0xacdaeeb57ff68,💩happens.eth,1,
1044,0x4c6d87a0df502,,1,6 months ago
1045,0x811e4327de2db,,1,5 months ago
1046,0xff9c1c46483f5,,1,22 days ago
1047,0x8785b79078c70,,1,
1048,0x41a3c90f80848,reemixed.eth,1,5 months ago
1049,0x003f6b20bfa4b,snxprofessor,1,2 years ago
1050,0xd3a2a74097cdf,,1,8 months ago
1051,0x7aae0c227152c,,1,8 months ago
1052,0x69ad4294f8b92,,1,
1053,0x32f34871e9eea,,1,1 year ago
1054,0x2aaba4b94a805,,1,
1055,0x5f538ec1cc30f,,1,6 months ago
1056,0xbcf1151b001ab,,1,
1057,0xdc6eca7b06aef,,1,
1058,0x3445a938f98ea,,1,3 months ago
1059,0x893f0c61d2bed,,1,9 days ago
1060,0xa96df9d72fa43,dbm.eth,1,
1061,0xd59f81bb595bb,,1,1 month ago
1062,0x2e0a4f6c749a7,,1,
1063,0xbefed71039112,,1,1 month ago
1064,0x0ec5b42d53c60,,1,12 months ago
1065,0x40a628d16be2b,heygareth.eth,1,18 hours ago
1066,0x0d54e5297c012,🍊juicevault.et,1,3 months ago
1067,0x7abf95d38ac2f,,1,1 month ago
1068,0x0f692f4a86267,,1,10 months ago
1069,0x1b46d2fed9a9a,,1,
1070,0xc36efbcec5d2b,punk4198.eth,1,8 months ago
1071,0x9b3e7f46e4e88,,1,12 days ago
1072,0xe518e48d6dd5a,,1,
1073,0x5c4fe960950ba,punk8845.eth,1,
1074,0x73e9f114536c6,,1,20 days ago
1075,0x6aa773e0c7b9c,,1,
1076,0x1819bc55d09e4,,1,6 months ago
1077,0xfee2f4fdc3bb9,,1,6 months ago
1078,0x15903df309f04,paradigmxyz.eth,1,1 month ago
1079,0xb085d1a456365,,1,
1080,0x2879271e69cbe,,1,2 months ago
1081,0x86a984ec4b78e,,1,
1082,0x562b31aa1f81f,,1,
1083,0xf905bbe7b1743,,1,10 months ago
1084,0x284187f56f031,,1,
1085,0xe6c270f594884,,1,
1086,0x4172f18124b82,,1,
1087,0x8a32c696e4974,,1,
1088,0xd21e78c798a23,,1,
1089,0x0242b0488df73,,1,1 month ago
1090,0x085843dbde124,,1,9 months ago
1091,0xe093b32e23646,,1,4 months ago
1092,0x34ccc716fa3f6,,1,
1093,0xd5438faf73f8d,helpchain.eth,1,8 months ago
1094,0x487d011987530,,1,4 months ago
1095,0x151dcb7d7c0ba,,1,
1096,0xd55ff85c850b1,,1,
1097,0x58238fb143275,,1,1 month ago
1098,0xddb408b95e515,,1,6 months ago
1099,0xf197abcac1788,,1,1 year ago
1100,0x6bf97f2534be2,Mr_0x,1,1 year ago
1101,0x6d2a4fad14d43,,1,
1102,0xe41691564a883,,1,1 year ago
1103,0x85257f61bcf59,,1,5 months ago
1104,0x20654e37f79d5,,1,7 months ago
1105,0xaab90275d2093,,1,10 days ago
1106,0x12039d90ba432,,1,3 months ago
1107,0x9649e370ee6fa,galbraith.eth,1,1 year ago
1108,0x97fdf679ee5cc,,1,3 months ago
1109,0x704c978d50590,OnlyToasted,1,8 months ago
1110,0x5fa8fa0d0f3d4,wagminft.eth,1,13 days ago
1111,0xbe9936fcfc506,,1,
1112,0x341e1cb13eade,,1,12 days ago
1113,0xcd9e48924c857,,1,
1114,0x117d7f173deb7,,1,
1115,0xbb511aa071cef,,1,
1116,0x753b20f21781f,,1,1 day ago
1117,0x7657428a5c241,manithawanii.et,1,2 months ago
1118,0x946dccf9c5dad,,1,
1119,0x1a560d6828e03,,1,
1120,0xd30824829647c,,1,6 months ago
1121,0x62174469ab600,,1,
1122,0x80ac8b6f4cace,shrimpwen.eth,1,6 months ago
1123,0xa635a54b4305d,piprycto.eth,1,8 months ago
1124,0x632ea82ffb1dd,msizz-vault.eth,1,
1125,0xa8c045e857c1c,garrettedvf.eth,1,
1126,0x42f84b1f43e42,,1,6 months ago
1127,0x31b415f5213d0,csmcbride,1,3 years ago
1128,0x64c40435192c5,,1,4 months ago
1129,0x3c1cf8e31e7b6,,1,
1130,0x90238a0a150c4,,1,4 months ago
1131,0x7bef866235611,,1,9 days ago
1132,0x42777c8f6d842,,1,
1133,0xe4928815a8d65,,1,9 months ago
1134,0x97df81b8bee95,,1,5 months ago
1135,0x74be0af0bf725,,1,27 minutes ago
1136,0xda5921614a824,,1,6 months ago
1137,0xa5d29dedd6619,,1,
1138,0xd839464c71129,cryptojacque.et,1,4 months ago
1139,0x7987c4a580599,,1,
1140,0x3be89b64e1437,mabu.eth,1,2 months ago
1141,0xe953901b87d98,,1,1 month ago
1142,0x8c97cf28138c0,,1,3 months ago
1143,0x55e7ca8f9799c,tcvillas.eth,1,8 months ago
1144,0xd4284c8cc5994,punk6424.eth,1,2 months ago
1145,0xe45731586308b,,1,2 months ago
1146,0x3d280fde2ddb5,sebaudet.eth,1,4 months ago
1147,0x92fa85ae9736a,,1,1 month ago
1148,0x84c74863c2ff8,zerogvault.eth,1,
1149,0x351896e85b8ff,,1,1 year ago
1150,0xe1db8391debe1,sdm.eth,1,4 months ago
1151,0x7642a378fb02a,georgeszeto.eth,1,9 days ago
1152,0x2b5b7c69b3e13,,1,
1153,0x0707634e4cd61,,1,1 month ago
1154,0xc7a1fcde0b80c,,1,
1155,0x75cfed3969e79,,1,1 month ago
1156,0xc2764c96dcb65,swit.eth,1,8 months ago
1157,0x08195cac6f2e2,,1,
1158,0x4961680b7d6bf,,1,3 months ago
1159,0x7f09599e49939,,1,8 months ago
1160,0x8bdd9a0817c10,,1,
1161,0x7e1377ef1e4e7,,1,7 months ago
1162,0x3330eda55af15,,1,4 months ago
1163,0xa2494712d017e,,1,
1164,0xb0f92dba4bb36,,1,
1165,0xcda094bf48988,andros.eth,1,5 months ago
1166,0x6baf353a85b59,,1,
1167,0x377d23bf3c98d,,1,
1168,0x9c5083dd4838e,pennilesswassie,1,8 days ago
1169,0x52c8bcd852c47,,1,2 months ago
1170,0x0120b4134354d,,1,1 month ago
1171,0xb20d6d616359b,,1,
1172,0x090807be348e5,,1,
1173,0x3dca3617acf5e,,1,1 year ago
1174,0xef8820e0829ba,,1,
1175,0x32c8d674e5012,,1,8 months ago
1176,0xca3be8fcc0bb1,hyperspacez.eth,1,1 month ago
1177,0x72853adeb121c,jackstar.eth,1,9 days ago
1178,0x568b3bda37e6c,,1,4 months ago
1179,0x77a22740a5b4e,,1,
1180,0x196a3dc844692,,1,5 days ago
1181,0x74619cfc7ec55,boredape.eth,1,1 month ago
1182,0xdecaf9cd2367c,,1,
1183,0x8dd4233705a7a,,1,7 months ago
1184,0x9b463916f8d52,,1,
1185,0xa94181f3fbc5d,showtheplan.eth,1,18 days ago
1186,0xec4b065f11ba9,,1,11 months ago
1187,0x2e0541ec2049f,,1,
1188,0x560e77cba63ef,,1,1 year ago
1189,0x554f413b34282,lesoza.eth,1,
1190,0x8b087f09d7700,,1,3 days ago
1191,0x9273eb21bc985,,1,
1192,0xd4b9ae55f9aee,,1,
1193,0x540fa9753b550,,1,
1194,0xfd7f140e6961f,,1,20 days ago
1195,0x19067a1cd73fb,,1,
1196,0xad532e06fad45,4life.eth,1,
1197,0xa083afa219bb7,,1,1 year ago
1198,0xd7510a925475c,,1,8 months ago
1199,0xa875458528429,,1,
1200,0x751282ed456b1,,1,
1201,0x05eac52cd2f60,,1,
1202,0x130e751af7a78,,1,2 months ago
1203,0x98d562c7a4781,avcdsld,1,2 years ago
1204,0x5b68ee14964c2,,1,3 years ago
1205,0x67f57e1e8f034,,1,
1206,0x401922caab649,,1,
1207,0x3bb0fe1d19e1f,,1,1 year ago
1208,0xbaea3cf94abd0,,1,
1209,0xff0288877e2b1,jinta.eth,1,
1210,0x04a30167ceea3,,1,
1211,0x1db12c2a7c803,,1,
1212,0xe3f58fde28598,,1,
1213,0xcbdd5572c551f,,1,2 months ago
1214,0x52744218fa706,stubocka.eth,1,4 months ago
1215,0xf9ea2b06c0410,,1,14 days ago
1216,0x75f38bca911cf,,1,
1217,0xbc9eca6408cd7,,1,
1218,0x5c90d9bd12f21,joncursi.eth,1,
1219,0x7cfa1265394f8,chiz.eth,1,
1220,0xeee5eb24e7a0e,tim.eth,1,1 year ago
1221,0x0dc467f5914b4,,1,
1222,0xd3d360bfa8b20,d3d3.eth,1,9 months ago
1223,0xd71d40c047a2f,,1,3 months ago
1224,0x27f84f518eb21,,1,
1225,0xa7cf5c8b575cf,,1,
1226,0xf0839f77d88a9,wissen.eth,1,
1227,0x561b0145d8f52,,1,2 years ago
1228,0x190e054198066,,1,
1229,0x521800f27992e,,1,
1230,0x968cb6af4a109,,1,
1231,0x2cd8623df45c7,,1,3 months ago
1232,0x5e4210e053683,rcs.eth,1,2 months ago
1233,0x517ffcd71e93b,,1,1 year ago
1234,0x735a4c94c506b,jangos.eth,1,
1235,0xab030e93fe506,,1,2 months ago
1236,0xd2d5ba17cdba5,,1,
1237,0x442c2ac97c47f,,1,
1238,0x2e0d63ffcb08e,flashrekt.eth,1,1 year ago
1239,0x3bfc0fdad9993,,1,
1240,0xc8c4ab6e1e7dc,LeandroCM,1,1 year ago
1241,0x7add87a63d9a8,,1,4 months ago
1242,0x468f68be02b48,,1,9 days ago
1243,0xa566b90070965,,1,
1244,0xe2e58b5bec8f7,2yeah.eth,1,3 months ago
1245,0xfb86dc7f81140,,1,
1246,0xee7c714ff1677,,1,1 month ago
1247,0xac768d475e39f,,1,7 months ago
1248,0x94b1235bc950f,,1,2 days ago
1249,0xe0908c4bb4fb2,5776.eth,1,1 year ago
1250,0xd9a77b788bb21,,1,2 years ago
1251,0x5cde157b494db,,1,8 months ago
1252,0xf0894a6556452,,1,
1253,0x04796671fe4ca,jaybo.eth,1,6 months ago
1254,0x5d13e62c715e6,,1,4 months ago
1255,0x4e4a90782c2f9,,1,
1256,0x0c9a83120e744,simple-simon.et,1,
1257,0x41d6651e1cfce,,1,7 months ago
1258,0xeb0d802614f87,,1,
1259,0xab6a4b6720fd6,silenok.eth,1,
1260,0x9a2843dddce80,,1,
1261,0x9e2344a4fb70e,,1,1 month ago
1262,0xbb67fbf829c29,,1,9 months ago
1263,0x0503b4d6b8bb4,,1,
1264,0x64c74b5cfe60c,,1,1 month ago
1265,0x18dd209c77fd6,,1,3 months ago
1266,0x9e44e38e23dde,,1,2 months ago
1267,0xa4b14c072e14a,,1,1 month ago
1268,0x3e8faf5b3a4ef,anuragrao.eth,1,3 months ago
1269,0x502ba21ce0018,,1,14 days ago
1270,0x69fa3e097e51b,,1,14 days ago
1271,0xeedcb5c3c42d0,,1,8 days ago
1272,0x417adeaa5c1e0,,1,
1273,0x8ca440e6e8ad6,arun.eth,1,8 months ago
1274,0x45795e6abe6be,,1,
1275,0x0d82ebc0e779a,,1,22 days ago
1276,0xc16e3f184e9fe,,1,1 month ago
1277,0x12cfb1db767fe,,1,9 months ago
1278,0x650d32dcfd3d3,nealkongstrong.,1,2 months ago
1279,0x14b96ecc9f91b,,1,1 year ago
1280,0x416219965d7f4,,1,8 months ago
1281,0x5c7e08791b841,,1,
1282,0xd70d88066dd8b,,1,
1283,0x13f137d638c4a,,1,1 year ago
1284,0x1d25217699774,,1,
1285,0x01bf9d8ea7d74,otisx.eth,1,6 months ago
1286,0x27ae7d19ae7e2,,1,
1287,0x4683d126f02e6,,1,
1288,0x180669310d089,,1,1 year ago
1289,0x8cf4f1c8d3dbe,jinwoo.eth,1,8 months ago
1290,0x8227ea0f64505,,1,
1291,0xb62986dc13663,,1,
1292,0x4e79b9e54f84e,,1,
1293,0xb2f772aa21df8,,1,7 months ago
1294,0x7e75ebac27116,,1,8 months ago
1295,0xd03d26b36642c,,1,8 months ago
1296,0x78236918a3713,,1,
1297,0xb2329a3c03b7c,,1,23 days ago
1298,0x650b940bce78e,,1,1 month ago
1299,0xd2e4d4cbd9b99,,1,1 year ago
1300,0x4d6906b088ed0,,1,4 months ago
1301,0x97870b59e0caa,,1,
1302,0xc7a73a9d6d15c,,1,
1303,0xa9c42f44bbe75,,1,
1304,0xf3d5e8f1cb8cc,,1,4 months ago
1305,0xaaa3f05f25eed,maffs.eth,1,1 month ago
1306,0xed5bd59ae895b,,1,1 year ago
1307,0xd1afbe4da2a5a,comfyvault.eth,1,2 months ago
1308,0xbcb6b159192c2,,1,24 days ago
1309,0x446dea59ed42c,,1,1 month ago
1310,0xe113e7b1e8ecd,niwin,1,9 months ago
1311,0xb932e9dd1b48c,,1,1 month ago
1312,0x92657fc9bba9c,jjlin.eth,1,16 days ago
1313,0xea333c8ebac20,,1,1 month ago
1314,0xbf09e79a558ee,littlegreen.eth,1,2 years ago
1315,0x8874ba15a4843,punk7480.eth,1,19 days ago
1316,0xb98d10d9f6d07,CoffreFort_G4SP,1,
1317,0xd96bcbc1071c8,,1,8 months ago
1318,0x2604fb7b2c561,yuppie.eth,1,7 months ago
1319,0xaac146fe886c3,,1,
1320,0x4b2a62efd6cc5,,1,9 months ago
1321,0xb86a550ac57af,,1,1 year ago
1322,0x07ee931814681,,1,
1323,0x7a44d904e5372,elderryan.eth,1,7 months ago
1324,0xf453c52477631,,1,
1325,0x8b3b5ee764292,robbradishvault,1,
1326,0x7eb9d67f9daea,,1,7 months ago
1327,0x3ab6122981242,fueledbyether.e,1,8 months ago
1328,0x7bf7b9436eeff,,1,11 months ago
1329,0x649f69ccd077d,jasonh.eth,1,9 months ago
1330,0x634aba7402ad0,econaut.eth,1,1 year ago
1331,0x9dd4d1552fe89,,1,1 year ago
1332,0x1e0a980dc878e,tappyvault.eth,1,16 days ago
1333,0x4827b3f7b1787,,1,1 month ago
1334,0x71f388113818e,,1,
1335,0x8e27bd3733591,,1,
1336,0xf9e4793d35c3f,,1,3 months ago
1337,0x41dd2c4372460,,1,
1338,0x641cf19cbd836,,1,9 months ago
1339,0xe9bb41714347b,,1,
1340,0x1ddd894c6512e,,1,5 months ago
1341,0x50f2242cda7df,,1,
1342,0x55e6dfa622687,,1,1 month ago
1343,0xfebaeca1976af,guglielmovault.,1,
1344,0x914f2e94a1a01,,1,
1345,0xbd080863995b7,,1,25 days ago
1346,0x8dd60e2a4a595,,1,10 months ago
1347,0xeb381fcfe8c91,,1,2 months ago
1348,0x3b417faee9d2f,,1,12 months ago
1349,0xc26012491b9df,karate-kid.eth,1,
1350,0xacf1f202160c5,,1,9 months ago
1351,0x8a42dbaf5ae15,,1,1 month ago
1352,0x02905c99b584d,,1,1 month ago
1353,0x6cbd72900b2e1,schreiber.eth,1,10 months ago
1354,0x550e970e31a45,taylor.wtf,1,
1355,0xd51e6c514fa5b,,1,29 days ago
1356,0x9d2d3944eb45f,,1,8 months ago
1357,0xdbc522931928f,frenetikvoid.et,1,1 year ago
1358,0x2c92fce8cdfe1,catycat,1,
1359,0xdb85d161e8401,,1,
1360,0xee582e716f540,,1,
1361,0x473a695a5f1e6,,1,1 month ago
1362,0x56d9543289a69,,1,4 months ago
1363,0xc56d2cd771747,,1,8 months ago
1364,0xd760ef23c9a20,,1,6 months ago
1365,0x9c7184f1728ee,,1,
1366,0x2e639b7b00a3a,,1,4 months ago
1367,0xba13f5e38aac6,,1,21 days ago
1368,0x13aff6b6d6ad0,,1,8 months ago
1369,0x97f1dab2855b6,,1,2 months ago
1370,0xe35c3d08163da,lmpostor.eth,1,1 month ago
1371,0xd6a984153acb6,vault.veefriend,1,20 days ago
1372,0x724de99d48a5f,fuchsbauvault.e,1,
1373,0x3b1a3ba7e0abd,,1,
1374,0xc6adf14fd489a,,1,8 days ago
1375,0x4f582c02da18c,,1,6 months ago
1376,0xc5c442b0a1eac,,1,21 days ago
1377,0x604b9f3d6bbc4,,1,3 months ago
1378,0x60ceef10f9dd4,,1,
1379,0x679b3e6c39c07,koromonjya.eth,1,5 days ago
1380,0x42c2173e599d5,,1,21 days ago
1381,0x8282d7e1a0ac8,,1,1 month ago
1382,0x27999df69861a,,1,5 months ago
1383,0xfd8f2c73e0ec4,,1,
1384,0x8af2bd409ea02,,1,10 months ago
1385,0xb5cae9ea8f463,,1,8 months ago
1386,0x90e5aa59a9df2,andy8052.eth,1,9 months ago
1387,0xafa3a87e6b417,,1,3 months ago
1388,0x354e09e3ae102,,1,9 months ago
1389,0xc72d57b880a98,,1,
1390,0x9b31fe02afa84,schism.pcc.eth,1,1 month ago
1391,0xd7b10538107b1,,1,
1392,0x653c7c5d8b14e,nerdminter.eth,1,1 month ago
1393,0x8cf9964b45e24,,1,4 months ago
1394,0xdaba22b5988bd,,1,28 days ago
1395,0x5c5a4ae893c42,,1,1 year ago
1396,0x5fbe6352e414c,,1,9 months ago
1397,0xdce0992e4579a,khcrypto.eth,1,8 months ago
1398,0x56ec6b8413d68,,1,4 months ago
1399,0x103d2d9b45dae,,1,21 days ago
1400,0x0bb754c2082e3,,1,
1401,0x6907ef6d0433f,,1,
1402,0x7fc4ddd895700,,1,
1403,0x98b69ed56718a,,1,4 months ago
1404,0x975779102b2a8,,1,9 months ago
1405,0x7675cf4abb1a1,,1,
1406,0x356d013938460,wendi.eth,1,
1407,0x106fc92125e9d,,1,
1408,0x76f29021ddd12,,1,6 months ago
1409,0xa524d8b55ffa5,,1,8 months ago
1410,0xa1e2fbd0f9446,,1,
1411,0x4803e1d536c2c,,1,
1412,0xc3974ba1d7bb1,,1,
1413,0xf1bb659a40f94,,1,8 months ago
1414,0x5e78f1958b8dd,,1,
1415,0xa2a13330a450c,,1,
1416,0x203bc267a4657,,1,10 months ago
1417,0x595ac8e1d6b83,,1,28 days ago
1418,0x91f377c38b164,,1,1 month ago
1419,0x725cb569b0790,,1,
1420,0x5da487ea7278e,,1,1 month ago
1421,0x87bf15a24b72b,,1,
1422,0xf6598ca199dc7,richardliang.et,1,9 months ago
1423,0x0454fa5c28198,10percenteffort,1,3 months ago
1424,0xd5b3516727e5c,,1,1 year ago
1425,0xd0732c8e259a5,,1,
1426,0x2da9b7e308ba9,,1,8 months ago
1427,0xf95209818d998,,1,8 months ago
1428,0x59275149ee03a,,1,15 days ago
1429,0xb44bc877b5103,,1,3 months ago
1430,0x3ba53cea97bff,joshbuckley.eth,1,1 year ago
1431,0x46ea9ed91bdfb,,1,7 months ago
1432,0x1a206bdc9dc96,,1,
1433,0xafe76886fa474,,1,
1434,0xf4493a8f3c990,,1,22 days ago
1435,0xf2626eadce879,,1,
1436,0x05581e35a5712,,1,28 days ago
1437,0xbb17ae1a41a06,,1,1 month ago
1438,0xde2901dc7e38c,,1,1 month ago
1439,0xfe51c1bbb0147,,1,1 month ago
1440,0xb4b8d2f1f52d9,,1,
1441,0xe71181e880c7a,,1,
1442,0x129c6695dfe7a,joevault.eth,1,7 months ago
1443,0x873a209f4894b,,1,
1444,0x5fe98e31d121f,,1,2 days ago
1445,0xa84234ee92a65,thankyoux.eth,1,2 months ago
1446,0xc6b7588d99901,,1,7 months ago
1447,0xd7d3239511e5f,,1,6 months ago
1448,0x769c27df8cd00,,1,28 days ago
1449,0x721fe9de376bd,vault.jalil.eth,1,
1450,0x0a0a224fbe845,,1,8 months ago
1451,0x4ebc8db52b6cb,,1,
1452,0x3d4d19c6768e4,,1,2 months ago
1453,0x9fb88bbed630d,,1,8 days ago
1454,0x2ac0757842a29,,1,8 months ago
1455,0xf844d53bcb401,,1,
1456,0x92071ec05df95,policepunk8969.,1,
1457,0xf92e42fb09370,,1,
1458,0x9beed2c0688ce,,1,4 months ago
1459,0x8072566fcdbe9,bouli.eth,1,1 month ago
1460,0x0fb04a8f3aaef,,1,
1461,0x784b8fc9a37b8,,1,10 months ago
1462,0x6ea8a20b66bd2,,1,
1463,0x3d8ab45cd4147,,1,1 year ago
1464,0xda1ec4da97019,trashbagscash.e,1,5 months ago
1465,0xf6210b4bb2fe8,vetinary.eth,1,7 months ago
1466,0x8bbc693d042ce,,1,
1467,0x15a4c23e7e405,,1,
1468,0xf75b77770955e,,1,6 months ago
1469,0x2a7eaafb6dd11,,1,2 months ago
1470,0x28a187716b6d1,,1,
1471,0x9225ae631a95c,,1,1 month ago
1472,0x853dc65b4f239,fallingleaf.eth,1,
1473,0x9f3ba643970e6,zenghost.eth,1,4 months ago
1474,0x569bf4ddeb298,,1,
1475,0x0b878599b37e6,,1,1 year ago
1476,0xb20898ad9ae01,lostpunks.eth,1,9 months ago
1477,0xdb5a7b0728aa0,,1,
1478,0x8d9f0f4e35b46,policepunk962.e,1,
1479,0x4a2088df692b9,Meatloaf_Galler,1,1 year ago
1480,0xdecd4b961b198,mrcartographer.,1,9 months ago
1481,0xb9682ee7c25be,,1,9 months ago
1482,0xc785cb91c03a8,,1,1 month ago
1483,0xa5f6a8db3d353,vault.simpleape,1,3 days ago
1484,0x947d78791b418,,1,
1485,0x0b498454c8269,,1,
1486,0xe71879304f842,,1,4 months ago
1487,0x20c1cd5c2ca77,,1,
1488,0x996dd2828fab5,facedown.eth,1,
1489,0x6d2c2297d211e,officialofficia,1,
1490,0x74806540d1429,,1,1 year ago
1491,0x1abed56b27691,,1,3 months ago
1492,0x8fe7b143b2c67,2670.eth,1,
1493,0x666dbb0fc8821,tanksecure.eth,1,
1494,0x7c7d093b4fb96,m3mnoch,1,1 year ago
1495,0x50b88f3f1ea89,lag.eth,1,1 year ago
1496,0x7b640407513bc,,1,5 months ago
1497,0x8cb377959625e,fungibles.eth,1,1 month ago
1498,0x1f8dec5061b0d,0x22mb.eth,1,3 months ago
1499,0xf37af0ae1455b,,1,5 months ago
1500,0x04304b72cbad2,,1,3 months ago
1501,0xf64f0e46f5b19,,1,
1502,0x0465f7dee00af,,1,11 months ago
1503,0xddcc629c76f31,pegleg.eth,1,9 months ago
1504,0xbf28421a82186,alihansaglam.et,1,3 months ago
1505,0x06e13bd0a3cba,myvaultfor.eth,1,
1506,0x20bcf46a41a18,,1,
1507,0x59d22c0cd4b1b,,1,4 months ago
1508,0x1d5e42f1d4c5a,,1,1 month ago
1509,0x9373d1a7af2e6,,1,
1510,0x2deade6816c6f,0x128.eth,1,5 days ago
1511,0x64cfc6deec191,,1,
1512,0x4680cb6356347,,1,2 months ago
1513,0x37e8703b1a29b,,1,
1514,0x7efe9d3ad5b69,,1,2 months ago
1515,0x6d4fdc55136de,,1,
1516,0xce4c8a44881d2,,1,
1517,0x3b6ff5fcb4400,,1,1 year ago
1518,0xae80ba1c6c27f,,1,19 days ago
1519,0xef6b30f76e035,,1,4 months ago
1520,0x9b37bc499de5e,huda-silverfox.,1,
1521,0x3bacc073f78d8,,1,5 months ago
1522,0xaedccf781647a,mexicanbandit.e,1,
1523,0xcf533a2aac4a3,,1,1 year ago
1524,0x42f1f7015a8a8,,1,8 months ago
1525,0x2f120efa7efdf,,1,2 years ago
1526,0x1a7d7e6abea49,,1,7 days ago
1527,0x1f41d663b8428,ace-one.eth,1,
1528,0xf65e164f07e01,,1,1 year ago
1529,0x75bdda6dbfaab,,1,
1530,0x213657bccc5cf,daidai.eth,1,8 months ago
1531,0x22daebd4e9730,,1,7 days ago
1532,0x0e691134a27fa,,1,1 month ago
1533,0x0848a2bd6ded1,,1,
1534,0x2a2efc5adea68,browniesvault.e,1,2 months ago
1535,0xc6c3f9cd868bc,,1,
1536,0x828920ee37fcf,,1,4 months ago
1537,0xe77e4d3db3cde,countzer0vault.,1,3 months ago
1538,0x8eaeb4ef38c4d,,1,1 year ago
1539,0x4eda444042895,,1,5 months ago
1540,0x2d732a485babb,,1,2 months ago
1541,0x4fe5d0b4b663e,mattblumenfeld.,1,1 year ago
1542,0x0d973069308a5,,1,1 hour ago
1543,0xae788dfe106fb,,1,
1544,0x55a0730a84472,,1,
1545,0x65b1b96bd0192,,1,4 hours ago
1546,0x7b343c896f856,punkvandelay.et,1,
1547,0xf4ffd6faa6861,pg3124.eth,1,11 months ago
1548,0x17313a31ee1fe,,1,
1549,0xd8aec968404f4,,1,11 months ago
1550,0x0a8025d44f749,,1,10 days ago
1551,0x830ed8630c973,poppunkv.eth,1,1 month ago
1552,0x087f6883133b0,bunn.eth,1,7 months ago
1553,0x686aae92e48eb,markjin.eth,1,2 months ago
1554,0xf20dc15a36d4e,kunstkennerey.e,1,
1555,0x0e1714b436b30,,1,
1556,0x19a0110537e49,,1,
1557,0xbd1ebaa3b200a,,1,6 months ago
1558,0x69e1c391e6fa8,pumptruck.eth,1,3 months ago
1559,0x4047eb64f5ca3,,1,4 months ago
1560,0xc13149c4f6176,,1,7 months ago
1561,0x66449a862fcf4,,1,4 months ago
1562,0x32f7b29eb742f,sqlpanda.eth,1,7 months ago
1563,0x0c192889c5a96,artartart,1,1 year ago
1564,0x684f1a7213398,,1,
1565,0x67775855d960f,,1,5 months ago
1566,0x0f01735fb8fa1,,1,4 months ago
1567,0xd2401c0852249,,1,
1568,0x297009f9ce654,,1,1 year ago
1569,0xb337ebb19121b,,1,7 months ago
1570,0xaaaac066a6965,,1,
1571,0xa4e232fceedb3,blequity.eth,1,4 days ago
1572,0x4eecbe12d6e11,,1,
1573,0x4bb58423a8b2e,freezerbox.eth,1,
1574,0xf4aa2ad2b6585,,1,11 months ago
1575,0x698b9d56abec3,amoosed.eth,1,4 months ago
1576,0x1baec9d58603f,mjm.eth,1,1 month ago
1577,0x4880faf3b9950,,1,4 months ago
1578,0x91254a0a0febc,,1,8 months ago
1579,0x1a1f337faa595,2punks.eth,1,1 month ago
1580,0xc0130dc92ed0a,,1,
1581,0xc7fe19ec5e355,,1,7 months ago
1582,0x951dd3758f51d,theterpyone.eth,1,
1583,0x1668c9725e27b,tomhschmidt.eth,1,9 days ago
1584,0xeafc83bd21070,lizelle.eth,1,6 months ago
1585,0x47b78acc6d294,eric.eth,1,3 months ago
1586,0xa290660029f33,,1,9 months ago
1587,0x4d31bd53dbda1,,1,
1588,0x2630f09036204,,1,5 months ago
1589,0xb10004a5faf2c,,1,3 months ago
1590,0x8262ec80a3327,ohl.eth,1,8 months ago
1591,0xb664ccf0fb099,,1,
1592,0x95fecf87fe6bd,,1,5 months ago
1593,0xbc8159917e892,rainal.eth,1,1 month ago
1594,0x9a82d93ba5d1f,,1,2 months ago
1595,0xaa14c41fd6cb0,,1,11 days ago
1596,0xfaf20a6a1816e,sarahq.eth,1,4 months ago
1597,0x2720c3dfe1ea9,,1,
1598,0x769a1ef6fbfa9,nodeal.eth,1,
1599,0x9cef0be42a0ac,andreavault.eth,1,
1600,0x24804b8e93176,deathbatsclub.e,1,
1601,0xc16dc6db44696,,1,10 days ago
1602,0xbb322d8abff81,,1,1 year ago
1603,0xafd1c5f8ec971,,1,
1604,0x476a9c42833e5,,1,
1605,0x5835235e0bbc7,,1,
1606,0xf25acae090055,,1,
1607,0x16ad4e68c2e1d,benyu.eth,1,6 months ago
1608,0xd42fab871e708,,1,2 days ago
1609,0xc4a72063c03e7,,1,1 month ago
1610,0x78ab747d6675a,sriramk.eth,1,8 months ago
1611,0x7546c60ae8d65,,1,
1612,0x2536185849ee7,chenqq.eth,1,8 months ago
1613,0x077777f53544c,0x07777.eth,1,1 year ago
1614,0xcc0096c4e13ab,,1,8 months ago
1615,0x7093f8979a945,,1,1 year ago
1616,0x131cce1a0b5a3,lucied.eth,1,7 months ago
1617,0xc69b462d6e06e,,1,4 months ago
1618,0xeb8140192ca8a,,1,8 months ago
1619,0x7f0882cc03162,,1,6 days ago
1620,0x59e1dc3ca4f51,,1,3 months ago
1621,0xf82339270792e,,1,6 days ago
1622,0x1b523dc90a79c,jrnyclub.eth,1,8 months ago
1623,0x33f44154f10ad,,1,
1624,0xfc5f95cb4d5da,,1,6 months ago
1625,0x38c6880a4b554,,1,8 months ago
1626,0x713282ece7b1e,,1,8 months ago
1627,0xa10f5dc7d17ad,,1,3 months ago
1628,0xa4df90e57987e,,1,
1629,0xda5b74ad80511,punk6470.eth,1,
1630,0x996290c17c874,,1,1 year ago
1631,0xcb2e10a47da99,,1,7 months ago
1632,0x4127143a866bf,maxether.eth,1,2 months ago
1633,0x5c0d23f665f51,cdot.eth,1,5 days ago
1634,0xf8196c206634b,bensharf.eth,1,8 months ago
1635,0xd16b147f126ba,,1,9 months ago
1636,0x8889ab34cb80b,,1,
1637,0xa3280e03637a8,,1,7 months ago
1638,0xe6030d4e77388,,1,
1639,0xc31afe50abc2f,,1,21 days ago
1640,0x1de575c11e53a,,1,
1641,0x2859014bd9a59,frogfather.eth,1,8 months ago
1642,0x3869eb5735251,johnny.tafoya.e,1,
1643,0xc5f5970997426,farokh.eth,1,9 months ago
1644,0xc1bdab49e94da,,1,8 months ago
1645,0xb23fb4ca613ef,,1,6 months ago
1646,0xd5485a2eb4595,,1,
1647,0x56f70a0bbfefa,lavalette.eth,1,1 month ago
1648,0x88063f189e8f8,,1,9 months ago
1649,0xa83fa9c834bb5,blu30rgy.eth,1,1 month ago
1650,0xe7a806e88f6c8,,1,1 year ago
1651,0x446de57a85d7b,,1,
1652,0x8cb33d13e9270,,1,1 year ago
1653,0x0e65cb6e1abb6,cernat.eth,1,5 months ago
1654,0x1a1824e3c1092,,1,4 months ago
1655,0x576b410d17d0c,onemandao.eth,1,3 months ago
1656,0x297289405faf3,,1,8 months ago
1657,0xe0c60af5b9946,,1,7 months ago
1658,0x4f3cf061c01a0,2639.eth,1,8 months ago
1659,0xdc5b961a5ab04,,1,3 months ago
1660,0xca11d10ceb098,,1,1 month ago
1661,0x7ccd2ee72a75f,deafbeef.eth,1,9 months ago
1662,0x7333a52c1355f,,1,
1663,0x620f761d45a8b,,1,
1664,0x0e15a38ddffd0,,1,
1665,0x378791a4cc214,,1,
1666,0xb4e5e410353d8,,1,2 months ago
1667,0x4223e128a023a,,1,6 months ago
1668,0x26648e3f7c7b1,,1,4 months ago
1669,0x080ea8d13afd0,,1,1 month ago
1670,0xca6dc73b9a12d,,1,8 months ago
1671,0x085f054abfc21,,1,
1672,0x811dfeab25fea,,1,8 months ago
1673,0xc6f6c89f7f297,markkat.eth,1,10 months ago
1674,0x01b57b97b40a8,,1,
1675,0xc3c14f31c8db2,,1,25 days ago
1676,0xc2bb6c36f36f1,,1,10 months ago
1677,0x123754aae1b68,,1,
1678,0xd23b06012790e,ngbshpend.eth,1,
1679,0xe931ba71b8469,,1,5 months ago
1680,0xb63c134c46234,,1,6 months ago
1681,0x171f44a479cf3,,1,2 years ago
1682,0x14839fc66a273,,1,
1683,0xcaa2f118dc429,,1,
1684,0x24d7a9daf84a3,collectibles.1o,1,
1685,0x951038bb372d1,lunasea.eth,1,4 months ago
1686,0x42de10a720c59,izebel.eth,1,13 days ago
1687,0x0cca26291a325,,1,8 months ago
1688,0x1365d2e329df3,cryptocron.eth,1,
1689,0x25aacc6454d04,,1,6 days ago
1690,0xbb7c4e59705a5,,1,6 months ago
1691,0x24f270bdf0eeb,,1,1 year ago
1692,0x762335679db1c,,1,6 months ago
1693,0x742117c481f50,firasfa.eth,1,2 days ago
1694,0xebcbe3413c939,punk6457.eth,1,
1695,0x0000000000000,,1,
1696,0xc7bd4ad8ec441,,1,
1697,0x685cb9e2035d9,theintimidator.,1,1 day ago
1698,0x0e79c644ec160,,1,7 days ago
1699,0x834bd42d09717,freeport.eth,1,1 year ago
1700,0xdb1fd26788f60,,1,1 month ago
1701,0x28c7400877f6d,punk2108.eth,1,3 months ago
1702,0x32c3388879ec0,,1,5 months ago
1703,0x74f3bd4d3bfe3,,1,
1704,0xdb4dd04493189,,1,
1705,0xf823ef9cc2d59,redbeardsafe.et,1,
1706,0x28ecea27f868c,,1,
1707,0xa25c0142d8134,,1,
1708,0x027cae2ed1a23,plox.eth,1,3 months ago
1709,0x76ab86c6fb651,floh.eth,1,
1710,0x4d62360cecf72,benddao.eth,1,
1711,0xff43da261edc6,,1,12 hours ago
1712,0x9c67a3b0b44dd,tmkcoldvault.et,1,
1713,0x26141f4a62f49,ph1l.eth,1,
1714,0xd6dd6961d3224,purplehat.eth,1,9 months ago
1715,0x068b65394ebb0,,1,8 months ago
1716,0x2fdb19099db62,,1,
1717,0xda44e1c6addf1,,1,4 months ago
1718,0xafa6d0d0d9448,,1,6 days ago
1719,0x2b0386bbdd314,shibboleth.eth,1,12 days ago
1720,0x4c343ec99711e,,1,
1721,0x0e81eaf2e7224,,1,
1722,0xdc64669d4f10c,,1,11 days ago
1723,0xcb538e6a02eea,,1,
1724,0x1b8998d5343a3,,1,4 months ago
1725,0x35d124ce28e92,,1,4 months ago
1726,0x701d0a5ad876d,,1,3 months ago
1727,0x67b9d0920663f,,1,24 days ago
1728,0x16bd68b91396a,,1,9 months ago
1729,0x606cca7f81b53,,1,4 months ago
1730,0x44b963cc2ebe6,,1,
1731,0x03804baf09aab,,1,2 days ago
1732,0x21c83917fe726,,1,
1733,0x290b4ec8345c3,st3fan.eth,1,7 months ago
1734,0xd25860e7128e6,,1,6 months ago
1735,0xac4109a00af7d,lorepunk.eth,1,10 months ago
1736,0xf3cad40f7f7b4,,1,5 months ago
1737,0xbe6e23ba37ba1,,1,8 months ago
1738,0x1b7fcc22d66f1,,1,
1739,0xbd17e0c2d7ab5,,1,1 year ago
1740,0xe9325c145551f,,1,5 months ago
1741,0x6e8f26d35800e,apostolos.eth,1,11 months ago
1742,0x58cd5762a948f,,1,
1743,0xbe63776fe7477,,1,1 year ago
1744,0xad3b508d912be,,1,19 days ago
1745,0x60ea59c40efc5,aguiar.eth,1,
1746,0xc31580f521cdf,,1,3 months ago
1747,0x45fe0cc37598b,,1,7 months ago
1748,0xa22df8a27f62a,,1,
1749,0xeb8ffc68f50e5,,1,2 days ago
1750,0x573555dc420c8,,1,
1751,0x82c5e264ac23b,3p-capital.eth,1,3 months ago
1752,0x5aa71418ac623,,1,7 days ago
1753,0xc4c1fa20a612f,,1,
1754,0xb9ccea572a82d,sockeye.eth,1,1 hour ago
1755,0x26ac1f3cbb5b7,,1,
1756,0x6903ab3d7af60,pixel8.eth,1,6 months ago
1757,0xdf934780e40d9,,1,6 months ago
1758,0x504805426ef5e,,1,8 days ago
1759,0x00493aa44bcfd,kirinparadise.e,1,9 months ago
1760,0xe487ed5ec80cc,ëlon.eth,1,
1761,0xa6e92875dc37b,,1,
1762,0x5a483c063b6b2,MattKaneArtist,1,1 year ago
1763,0x4bd1198b4130e,,1,5 days ago
1764,0x1109297e392d9,,1,2 months ago
1765,0x4e335bfda2545,,1,9 months ago
1766,0x42e4c24ccc20f,,1,
1767,0x0a98f97e89743,,1,3 months ago
1768,0x1d4bee5c7c1cc,,1,1 month ago
1769,0xfdcd64b5ba061,,1,8 months ago
1770,0x67136c501dc2d,,1,
1771,0x7bf1829323401,omarlittle.eth,1,6 months ago
1772,0x842eeed9fb4dc,,1,3 months ago
1773,0xd7029bdea1c17,dwr.eth,1,9 months ago
1774,0x444d70a6caeef,,1,
1775,0x1ad92bd45f2d1,,1,23 days ago
1776,0xcaf02ce74c80c,,1,29 days ago
1777,0xfcc6110a2eeab,purplecap.eth,1,6 months ago
1778,0x073e9bf572f87,,1,6 months ago
1779,0xff95c307253ee,krainak.eth,1,7 months ago
1780,0x7d85806c589d9,,1,1 year ago
1781,0x25b45ee1f5efb,,1,
1782,0x90b2e9aeace19,,1,9 months ago
1783,0x3471a10bc60cf,,1,3 months ago
1784,0x25b6062593849,,1,1 year ago
1785,0x7e23a0a9fd110,TJ2010,1,1 month ago
1786,0x5688eedc08e9e,,1,
1787,0x5a8681ca9efdd,ObiWanKenobi,1,27 days ago
1788,0xd0c080bf6df20,,1,
1789,0x5d843c34ff45d,,1,9 months ago
1790,0xf6651185a3737,pachuchay.eth,1,6 days ago
1791,0x5ad27c3928794,,1,1 year ago
1792,0xc69ae428f6049,,1,3 months ago
1793,0x3c970b5b3030e,,1,7 months ago
1794,0x0a72cf631baba,,1,
1795,0xdc925a32a5f01,,1,4 years ago
1796,0xf112382731b87,,1,3 months ago
1797,0x828b230276fa7,,1,2 months ago
1798,0x1288e3dad9deb,,1,8 days ago
1799,0x8363b3c46c057,spr3adsh33t.eth,1,1 year ago
1800,0x3eef4866f1fc4,internetartcoll,1,1 month ago
1801,0xfea037b0b5edc,nessgraphicsvau,1,
1802,0xd74d4b30c39a9,,1,
1803,0xff3d22f855b16,chasesteely.eth,1,4 months ago
1804,0x17ab337fec13d,,1,2 months ago
1805,0x6c806be0feee3,,1,4 months ago
1806,0x3ae85d19566c1,,1,
1807,0x8e8f16c4aa9cf,,1,8 months ago
1808,0xaedaf3d364f56,,1,4 months ago
1809,0xeee59d723433a,,1,3 months ago
1810,0x0104bb585fb19,,1,7 months ago
1811,0x3a0bef9700474,,1,
1812,0x27366708f5339,,1,9 months ago
1813,0x018edc98b3190,Kittypad,1,2 months ago
1814,0x57eadd1811aff,oojjoo.eth,1,
1815,0x5ccaec29c9d3f,,1,1 year ago
1816,0xe3e922536ce4f,,1,2 months ago
1817,0x155a922d61ca2,,1,8 months ago
1818,0x52d9651183a3a,,1,8 months ago
1819,0x7ddffbc38121a,,1,1 month ago
1820,0x57a1290bb8346,,1,7 months ago
1821,0x8c6af0a77b37d,,1,9 months ago
1822,0x1660b9e29f0db,,1,
1823,0x828cc5c913fdc,,1,7 days ago
1824,0xa7ad4296d9f41,,1,5 days ago
1825,0xcc46efe392d56,,1,1 month ago
1826,0xa0002a89b51e8,punk4804.eth,1,4 months ago
1827,0xa477803db91cb,,1,9 months ago
1828,0x7b1d4f3602f0f,MBK,1,3 months ago
1829,0xce8a86fc6235e,,1,
1830,0x679b4172e1698,degenbing.eth,1,
1831,0xae21e35267926,,1,24 days ago
1832,0x0e9ae1b469dc5,,1,
1833,0x898f647797a88,,1,1 year ago
1834,0xf49beb85fc09c,,1,6 months ago
1835,0x85e8eb70033d9,,1,10 months ago
1836,0xf2658f5f05c33,,1,1 month ago
1837,0x95ef2f204d7ea,,1,1 day ago
1838,0xd3b4a507c9967,,1,1 year ago
1839,0xa0dac4ac9bdb6,,1,
1840,0x8858ea3b4080b,xaixvault.eth,1,
1841,0xefdfa06f9c876,dioxide.eth,1,1 month ago
1842,0x5f4afef9f32ca,,1,1 month ago
1843,0x07cc65ec4de72,silentgarden.et,1,9 months ago
1844,0x2f86b6b45f8b4,firevault.eth,1,
1845,0x60c728d2a606d,,1,7 months ago
1846,0x56b598cf170b0,hewerclan.eth,1,8 months ago
1847,0x4909cae17fd92,,1,
1848,0xebdca98d29803,ajh.eth,1,2 days ago
1849,0x6ea4539872bc2,,1,8 months ago
1850,0x5b1c25d61edce,,1,6 days ago
1851,0x46a23666b9974,,1,
1852,0xc795954bbd35c,,1,
1853,0xd0f5436fc7b24,,1,8 months ago
1854,0x5080b717e5ed2,,1,7 months ago
1855,0x96a4a6997a892,,1,1 day ago
1856,0x84248ba6fdaf9,,1,9 months ago
1857,0x86286d93d79a9,,1,4 days ago
1858,0x7f100da830295,,1,1 year ago
1859,0xd8d908959b0fd,Juanito,1,8 months ago
1860,0xc050d3841c144,,1,3 months ago
1861,0x46788c4245ea7,clowntown.eth,1,5 months ago
1862,0xe4183c76b4853,itsallrisky.eth,1,1 month ago
1863,0xbd4fd6759d77e,,1,3 days ago
1864,0xee8eeec3e7a5a,renaissanceman,1,1 month ago
1865,0x1fbbdc5f597ab,,1,
1866,0x9f2b8b1d5e0f8,,1,1 month ago
1867,0x5c2873b4ff893,cryptowilliam.e,1,2 days ago
1868,0x3d90fe2264b7c,,1,
1869,0x38191ca1307eb,,1,
1870,0xa9995648fcac5,,1,
1871,0x09dc1450271fc,,1,
1872,0x3ede8326c00aa,,1,10 months ago
1873,0x09b59bb79a85b,,1,5 months ago
1874,0xee6ccbc9d83a9,,1,
1875,0x37f3111e5b5f9,,1,7 months ago
1876,0x006b082e8a781,ryangtanaka.eth,1,
1877,0x5129b872eade3,,1,10 months ago
1878,0xddfb6f80b3c06,,1,
1879,0xba9e4ea6a511a,,1,
1880,0xc685ba47796e7,,1,29 days ago
1881,0x11e4857bb9993,hayden.eth,1,9 months ago
1882,0x37eb49074b9c7,,1,
1883,0x0d2cb89f8637b,,1,7 months ago
1884,0x983f0cbb4815f,flowerpot.eth,1,8 months ago
1885,0xfd71c1376db44,,1,5 months ago
1886,0x0a883616ff6ba,,1,1 year ago
1887,0xaea8e3bd36921,,1,1 day ago
1888,0xf8a4f66210bc9,,1,1 year ago
1889,0x998e2d4bc77e0,,1,
1890,0x0c2d5e803d960,,1,
1891,0x3ee18f6052b1d,,1,11 months ago
1892,0x6dbdc8bd19ca8,heshi.eth,1,2 days ago
1893,0x69dec24d8f10f,,1,2 months ago
1894,0x9286196572423,,1,22 days ago
1895,0x809e7b210f8c5,,1,2 days ago
1896,0xd3450d0e31b3b,,1,2 months ago
1897,0xfcd457b27ee14,,1,5 days ago
1898,0xe5625a6ee4908,,1,21 days ago
1899,0xcbadec3966a8f,,1,8 months ago
1900,0x16f53c952a995,,1,8 months ago
1901,0x73cb04ceb143a,,1,
1902,0x0297c8d39bb7c,,1,8 months ago
1903,0x14cee90af8f4a,,1,7 months ago
1904,0x191458d229eaf,,1,1 year ago
1905,0x5bc79d9084b79,202020.eth,1,1 year ago
1906,0xbe42e9985d508,,1,23 days ago
1907,0x06e63138f3241,,1,7 months ago
1908,0xfce761b176cf3,wwy.eth,1,10 months ago
1909,0x5330be5c529cd,,1,1 month ago
1910,0xb205be13e3f9f,,1,3 months ago
1911,0x9d8b59de3e39f,,1,3 days ago
1912,0xe2d712e5da20b,baronesscrypto.,1,8 months ago
1913,0x8d3caf6b86300,davidiach.eth,1,8 months ago
1914,0x3b18f3ab672dd,,1,1 month ago
1915,0x2e7296ebc57fc,henryelder.eth,1,1 month ago
1916,0xedd88ca63d7c0,,1,3 months ago
1917,0x20d5a37486b4f,,1,8 months ago
1918,0x60311403a64e4,,1,
1919,0x7b8961f67382c,,1,8 months ago
1920,0x2d891ed45c4c3,bnolan,1,3 years ago
1921,0x8c2e67bd3d0f4,borgetsebastien,1,
1922,0xcc865a7746b50,inceptionorg.et,1,5 months ago
1923,0x690892db2fa43,tazzyvault.eth,1,
1924,0x0864224f3cc57,,1,
1925,0x5e0f6928a6df4,,1,
1926,0xbf370b6e9d97d,manelee.eth,1,10 months ago
1927,0x46bc2a8d011e2,gregaro.eth,1,8 months ago
1928,0x81b3ff7fc3d2c,deficowboy.eth,1,
1929,0x4c1194386e121,thereal4156.eth,1,4 days ago
1930,0xc96de7ba760c8,,1,5 months ago
1931,0x0f18c529b5185,,1,
1932,0xba304e6d2bbb7,,1,8 months ago
1933,0xaa1d4a0859d9e,,1,8 months ago
1934,0xc9f5654e2f1bd,libraobab,1,9 months ago
1935,0x655581e6480ec,,1,
1936,0x0d5d22a5a5bf3,punk973.eth,1,3 months ago
1937,0x996666de859b2,rmr.eth,1,8 months ago
1938,0x7549ab7a4453a,,1,2 months ago
1939,0x0acae1b389a79,reznick.eth,1,4 days ago
1940,0x73d855f11cbc0,musitie.eth,1,22 days ago
1941,0x6a397459bc9f3,,1,1 year ago
1942,0x9224bbb4e0fbe,guru-g.eth,1,1 year ago
1943,0x69f0687e1b859,dexer.eth,1,9 months ago
1944,0xa5493656b559a,,1,2 months ago
1945,0xee3b3cc4e1a67,s404.eth,1,7 days ago
1946,0x4757d97449aca,wangdong.eth,1,3 days ago
1947,0x0000000000000,,1,
1948,0x58455ce173812,,1,26 days ago
1949,0x48d9d0eabc945,greysonmage.eth,1,1 month ago
1950,0xb6327093558b8,,1,1 year ago
1951,0xfef1697cfa1a6,danielson.eth,1,29 days ago
1952,0xf5663d0eee362,,1,1 year ago
1953,0x1db5628f9443a,zheerwagen.eth,1,4 days ago
1954,0x5ac7983a4faaf,,1,12 days ago
1955,0x26439aeb008d6,zico,1,3 months ago
1956,0x20744fbf4085f,,1,
1957,0x3257d0a5e09bc,,1,2 months ago
1958,0xe19f9ae896300,,1,
1959,0xeb0a6613c89c0,secondfoundatio,1,19 days ago
1960,0x402ad5b9fee0e,,1,1 year ago
1961,0xfe348a1c6401b,,1,
1962,0x783df1f331325,,1,
1963,0xb2f4b16595e02,Kinchasa,1,9 months ago
1964,0x722ce15c62082,,1,11 days ago
1965,0x997dc61ac5e94,,1,
1966,0xb02365dc1a28d,cortexjess.eth,1,
1967,0xdc9cff43b33bf,vault.colesouth,1,2 months ago
1968,0xc8ee0265bdac8,,1,
1969,0xf673625a17f40,hot.pkl.eth,1,3 days ago
1970,0xfe3a899e0de97,,1,25 days ago
1971,0xbdc7897fc274a,,1,8 months ago
1972,0x8c4a6242c0027,,1,1 month ago
1973,0x9a3c172ed08ff,,1,4 days ago
1974,0xd0fee4ccd4cd8,,1,1 year ago
1975,0xfc11f9d668f29,,1,1 year ago
1976,0x0d5387a3ee246,nicholasbaker.e,1,8 months ago
1977,0x6e9bb68ee1a66,,1,4 days ago
1978,0x001da99a3554b,Bendicion,1,1 year ago
1979,0x2351bf00620b7,,1,
1980,0xf54d81b295583,📻♫♫.eth,1,
1981,0xa9d9df8013b7c,,1,28 days ago
1982,0x7c901d78ba68b,,1,
1983,0x5cf8574c6a0ee,knifefight.eth,1,1 year ago
1984,0x34669322bdfca,,1,1 month ago
1985,0x39bf511cd0cfa,,1,3 months ago
1986,0x7e2d1cad77532,,1,1 year ago
1987,0xd9014705d2368,,1,7 hours ago
1988,0x9c2d3d0663223,,1,
1989,0x7a8d8f4b5c05e,,1,8 months ago
1990,0x60d25d3428bff,,1,1 month ago
1991,0x49432b32f2648,cryptotoasty.et,1,10 days ago
1992,0x00653d03b147a,dtqjack.eth,1,1 year ago
1993,0x81e817a0b0953,,1,
1994,0x94eba34e65078,,1,1 month ago
1995,0x299eae71c3ad6,,1,9 months ago
1996,0x58d58008a506d,,1,13 days ago
1997,0x6bd662f8b7258,supbros.eth,1,2 months ago
1998,0xf21e5f7b79fdc,,1,3 years ago
1999,0x2749361603672,,1,
2000,0x1efadf6083d9a,odrog-vault.eth,1,
2001,0x57b4fbe590333,,1,
2002,0x071e3196ada3f,skeet-vault.eth,1,7 months ago
2003,0xbfa319ef5529b,,1,6 months ago
2004,0xa1be3e603acc2,,1,1 month ago
2005,0xf6c2332e99df2,,1,
2006,0xfb5625ad85fce,,1,1 year ago
2007,0x2206168cde2b3,,1,1 month ago
2008,0x890dbc463f22c,,1,1 year ago
2009,0x484c6dcd50978,,1,11 days ago
2010,0x1c699fa558735,,1,1 year ago
2011,0x4ef1ab9a3330c,,1,4 years ago
2012,0x0a645cbbfd479,,1,4 years ago
2013,0x6623e270c5431,,1,
2014,0xafd37c11f9dfe,pixelpetevault.,1,9 months ago
2015,0x00a839de79224,ralxz,1,2 years ago
2016,0xcf0ee1f9ebb63,,1,9 months ago
2017,0xf7b33567153e2,,1,4 years ago
2018,0x76ee90e1ec74a,,1,7 months ago
2019,0x10f16811b18aa,goat.eth,1,7 months ago
2020,0xe923413e29cfb,,1,8 days ago
2021,0x263462e25018c,,1,22 days ago
2022,0xb5ac414c576bd,brzrk.eth,1,
2023,0x1b63142628311,tgerring.eth,1,9 months ago
2024,0x4fe547fa933d7,,1,4 months ago
2025,0x552f01d67b352,gCAN,1,2 months ago
2026,0x8ae57a027c63f,rollbot.eth,1,29 days ago
2027,0x28c89718f4dab,,1,4 years ago
2028,0x6d3568d0515a0,sushiape.eth,1,9 months ago
2029,0xa748b28b0d110,hideinbush.eth,1,8 days ago
2030,0xc3ab77ca48fb6,0xfroge.eth,1,3 days ago
2031,0xebb85248623c2,,1,7 months ago
2032,0x9a2f6117d1ffa,bigint-vault.et,1,
2033,0x68634371b197e,,1,5 months ago
2034,0x51734e5211c3e,themetavault.et,1,
2035,0x6afd3f33ad6e0,,1,
2036,0x4899410edb370,Gratitude,1,8 months ago
2037,0x337101def3eeb,,1,1 year ago
2038,0x19f944ae27e61,,1,
2039,0xa64fc17b157aa,CBobRobison,1,3 years ago
2040,0xfb85fff7b47cc,,1,3 years ago
2041,0x7b4f0c7a4ad69,,1,
2042,0xcbce0963e1f64,,1,28 days ago
2043,0xac4bb350e235e,,1,8 months ago
2044,0x6d9194353c6a5,,1,2 months ago
2045,0x53e9bd8a795a2,,1,3 months ago
2046,0x51d5aa7a076c0,,1,8 months ago
2047,0xbcecfd35c17b4,,1,9 hours ago
2048,0xc4ed5dcd49908,yupyupyup,1,3 years ago
2049,0xb9cdeb51bd53f,,1,8 days ago
2050,0x75863c5dd30fc,asthealexflies.,1,1 year ago
2051,0xb89a9793f1515,rliu.eth,1,22 days ago
2052,0xf163df709d8f5,mcl.eth,1,1 year ago
2053,0xd1c1ea3dc3095,,1,3 days ago
2054,0xf91a60f097b6e,,1,1 month ago
2055,0x6853a596d6d72,zaphodok,1,3 years ago
2056,0x56d90629aa298,doze.eth,1,1 day ago
2057,0x90c19fea1ef7b,rssi.eth,1,8 months ago
2058,0x50c4e8fd53d5f,,1,5 months ago
2059,0x13d3fb98befad,,1,5 months ago
2060,0xc0d92f633ee8c,boxernfts.eth,1,7 months ago
2061,0xe6fc9423cc138,,1,
2062,0x826f63afd9517,,1,
2063,0x8396a631492c6,,1,7 months ago
2064,0xc9f203b4692c0,,1,1 year ago
2065,0xe5dfd20d05639,,1,8 months ago
2066,0x3950cf9d61851,ryanduffy.eth,1,9 months ago
2067,0x39ce1c0101b8e,,1,26 days ago
2068,0x530cf036ed4fa,dan_,1,1 year ago
2069,0x6dabf8d750c2c,,1,9 months ago
2070,0x6be450972b308,0x6be450972b308,1,4 years ago
2071,0xe7e169d87b2b2,,1,21 days ago
2072,0xf1db8a2623193,Fanny,1,3 days ago
2073,0xd9d8a53c75c3f,,1,6 months ago
2074,0x4b17bb0d1f756,,1,8 months ago
2075,0xb98dd602b3f73,,1,5 months ago
2076,0x03fbbfe27fae9,,1,4 years ago
2077,0xc72a7a1587895,,1,4 years ago
2078,0xf6852df0c0a18,,1,10 months ago
2079,0xf13a47ea0ef4d,,1,8 months ago
2080,0x8193935013a94,,1,22 days ago
2081,0x1847570ad2fe1,,1,
2082,0x7899f2a879588,,1,21 days ago
2083,0xeeaddc58cbf06,,1,8 months ago
2084,0x89c5dca00b9bf,WangXiang,1,2 years ago
2085,0xa0eaf6b0df871,itsmarshmello.e,1,6 months ago
2086,0xbce3e29641b20,,1,4 years ago
2087,0xfacef700458d4,penguin,1,1 year ago
2088,0xc52641d393c78,,1,4 years ago
2089,0xbe73799cdb39d,neilmehta.eth,1,5 months ago
2090,0x37ad75d01f35a,,1,1 year ago
2091,0x7eb28b2f14a59,,1,2 months ago
2092,0xcea58d938f353,,1,7 months ago
2093,0xc18c200a0949f,,1,8 months ago
2094,0xd11c2a4042c18,,1,4 years ago
2095,0x85aa8fd1b9912,,1,3 months ago
2096,0xe7d0ac5cc22ee,mikkovauras.eth,1,3 months ago
2097,0x97dc4d3abfaef,,1,1 month ago
2098,0x77f713b00ca5f,,1,4 years ago
2099,0x65d614757e874,,1,
2100,0xd665170e9706a,,1,2 days ago
2101,0x9b20a771e86cf,,1,
2102,0x2e9cb2534f224,marcbpunk.eth,1,9 months ago
2103,0xa1fd627d5ca88,,1,
2104,0x7e5b399e25466,,1,8 months ago
2105,0x821372752c0a7,,1,2 months ago
2106,0x8dc287825d71f,,1,
2107,0x52f9a67fd05ad,peng.eth,1,8 months ago
2108,0x9113d4142de0f,,1,2 days ago
2109,0xb0f96a681e2e1,auntdudey.eth,1,7 months ago
2110,0xd4d3f04bddd8e,markcheslervaul,1,4 months ago
2111,0x6dfc99cdefd0f,mr.suit.eth,1,1 year ago
2112,0xa2efa94766ee8,,1,10 months ago
2113,0x8ad68e2c67b88,,1,4 years ago
2114,0xaa93651731710,,1,
2115,0x342522ae61de2,mamov.eth,1,
2116,0x8b51d35ec0575,taras.eth,1,
2117,0x8fa2d00f7b753,,1,
2118,0x12dc0561e618f,,1,1 year ago
2119,0x7aed3163fb1b7,distorcean.eth,1,4 months ago
2120,0x554e3b78364ba,Ur84NKriptoN,1,3 months ago
2121,0x18f4f933f8773,,1,4 years ago
2122,0x15396ccbcf993,,1,1 year ago
2123,0xa05758edcefee,artie-the-corgi,1,
2124,0x3d2e717a22c33,,1,
2125,0x232968098ec98,cluelessrabbit.,1,1 month ago
2126,0x6ea073f4de9cd,,1,4 years ago
2127,0x7b8b8a1ecb4ee,,1,3 months ago
2128,0x06c1a3b6d3d47,0xyeti.eth,1,9 months ago
2129,0x74abcdd9db894,,1,
2130,0x74fc246e2eca4,,1,
2131,0x68c394c6daa77,,1,
2132,0x7b220358c3ec9,wahoowaaa.eth,1,3 months ago
2133,0xfe407097e296c,,1,8 months ago
2134,0x71710e1a6b5e5,hilobo.eth,1,5 days ago
2135,0x751832d7bb5e5,,1,4 years ago
2136,0x6a2840a37e5b1,,1,8 months ago
2137,0xbfc586a34128d,,1,4 years ago
2138,0xa02d922d569f3,basedmantis.eth,1,1 year ago
2139,0x6d5f1fc2799d2,,1,7 months ago
2140,0x6cc1483036b86,,1,4 years ago
2141,0xadb3a2c73f331,,1,4 years ago
2142,0xf13ac6a72cc24,,1,4 months ago
2143,0x1ab2e5ddd5a09,,1,
2144,0x1fb9f85fb060c,,1,4 years ago
2145,0x73e4a2b60cf48,cyberpnk.eth,1,1 month ago
2146,0x486f5eba364ef,,1,23 days ago
2147,0x2fd6a5b40fe31,ape8778.eth,1,
2148,0x57a14e3b9b8d9,,1,4 months ago
2149,0x124183252c86e,1622.eth,1,3 months ago
2150,0x147a3aaa88c45,,1,4 years ago
2151,0x4564d4b31de74,,1,14 days ago
2152,0x7a63bf9561529,,1,
2153,0xc8085c649480c,,1,2 days ago
2154,0x0a383e69f43bd,punk9999.eth,1,4 years ago
2155,0x06dc1e279bd44,,1,2 days ago
2156,0x3f390a0fe4fe9,,1,4 years ago
2157,0x66c95124035c8,veefriendsfamil,1,3 months ago
2158,0xa7eba7fda7e46,,1,2 months ago
2159,0xa8d04cd4e1951,wahoo.eth,1,1 month ago
2160,0x1e815a8188f1b,0xallen.eth,1,8 months ago
2161,0x12945660aaab3,,1,4 years ago
2162,0x977b2855ef349,,1,21 days ago
2163,0xd23c85224940f,dahustla.eth,1,22 days ago
2164,0xb35346addc8a8,,1,1 month ago
2165,0x965177425d86a,,1,7 months ago
2166,0x2e336836cf036,,1,4 months ago
2167,0xeb6cf828acada,,1,8 months ago
2168,0x06920c7442a04,,1,7 months ago
2169,0x355f9ded3c275,,1,1 year ago
2170,0x9357e4f9acd15,json.eth,1,9 months ago
2171,0xfad116147b061,,1,17 days ago
2172,0x3fb53766072d6,,1,1 month ago
2173,0x344c0fa091712,,1,
2174,0xc0b7baddb0631,,1,
2175,0x443b1a8ed01a5,,1,4 years ago
2176,0x1c2581e734a8b,Ravachol,1,11 days ago
2177,0x6e289e9b0cb88,,1,4 months ago
2178,0xa2ba04f43ca44,,1,
2179,0x01ec738293d4f,✨🚀🌙.eth,1,3 months ago
2180,0x16d7821ba26a8,retraite.eth,1,5 months ago
2181,0xe8ec6f729adbe,,1,1 month ago
2182,0xcdd60e7b7ade4,tomx.eth,1,
2183,0xcc778603d10bd,,1,8 months ago
2184,0xab7244011d76f,,1,7 months ago
2185,0x861e24696c8fc,,1,
2186,0x40dceaf803096,,1,4 years ago
2187,0xf9f484ccfed1a,,1,6 months ago
2188,0x4c4a5490deefe,,1,1 year ago
2189,0x59900b86e14e0,,1,4 years ago
2190,0x9aad504d2ecf1,,1,9 months ago
2191,0x9eecb70a1fcde,,1,4 years ago
2192,0x8aaa7f7542d72,,1,6 months ago
2193,0x4ceb8dc70813f,ssteiger.eth,1,4 months ago
2194,0x2014ae8b1d21f,,1,9 months ago
2195,0x028229241a160,,1,4 years ago
2196,0xd266c194e126d,leorad.eth,1,5 months ago
2197,0x7512c6a03b4c2,eth1314.eth,1,1 day ago
2198,0x6beea82395faa,,1,
2199,0x831ce339ab1e5,,1,8 days ago
2200,0xd270562a3cc94,,1,4 months ago
2201,0xe8b15352c8b5b,,1,1 month ago
2202,0x3d00aea893906,,1,4 years ago
2203,0x60ba32493ba39,,1,5 months ago
2204,0xac344fe188b60,,1,4 years ago
2205,0xc45532c436458,,1,8 months ago
2206,0xd8cb7c4da7146,,1,3 months ago
2207,0xf0dcd8c64eb82,,1,4 years ago
2208,0x4d697e4dc1a3f,,1,5 months ago
2209,0xdb9f8b13550b4,,1,4 years ago
2210,0x479299dd33b76,,1,1 month ago
2211,0x592234c63ac3c,2106.eth,1,1 year ago
2212,0x82f2c3e8f473b,,1,7 days ago
2213,0x679220ef8b751,,1,4 years ago
2214,0x1f2bcd78b9f4e,,1,4 years ago
2215,0x7dd5b92716542,,1,1 month ago
2216,0xf7babf951b80d,,1,6 months ago
2217,0x07c2af7578881,leishen.eth,1,8 months ago
2218,0x24582fd3ab36e,,1,4 years ago
2219,0x9d9df4b809f31,,1,4 years ago
2220,0x344edae9362e1,deirdre.eth,1,1 year ago
2221,0x009a6191f45a5,,1,4 years ago
2222,0x1ff60e72c816c,,1,4 years ago
2223,0xc97fdd816fcaa,,1,6 months ago
2224,0x6f7001383b8cd,,1,4 years ago
2225,0x518ae9dc06af3,,1,8 months ago
2226,0x000003e1e88a1,,1,8 months ago
2227,0x40093628f8347,,1,4 years ago
2228,0x26dee656e7d76,,1,8 months ago
2229,0xc5d5560af8d0d,andrewii.eth,1,
2230,0x680c8b7893fa2,,1,4 years ago
2231,0x62700a149eefe,,1,3 months ago
2232,0x76997945810dc,,1,4 years ago
2233,0xcb8475a4f2347,,1,
2234,0x809a31ce59528,,1,4 years ago
2235,0x5bb4fffef211f,fragileshark.et,1,7 months ago
2236,0xcb9cadd85c510,,1,1 month ago
2237,0x8883b11c7cc85,,1,4 years ago
2238,0x5b3af29c17e01,,1,1 month ago
2239,0xabf16c8103717,payam.eth,1,3 months ago
2240,0x88822756ec33b,,1,4 years ago
2241,0x0f08f5cf09054,,1,
2242,0xbdf1cdd4102d6,,1,2 months ago
2243,0xe29662a5b0a9e,,1,4 years ago
2244,0x5a1db96fd16e5,,1,
2245,0x4deb2291111ed,,1,
2246,0x8d8100705fb66,wishfulcynic.et,1,8 months ago
2247,0xd2b8c7bb221f2,,1,6 months ago
2248,0xfbc76261fd55c,sendrock.eth,1,1 month ago
2249,0x82410609593d8,cypherdao道.eth,1,
2250,0xa58ea377e85ae,,1,4 years ago
2251,0x580ecdd8b7cfc,,1,1 month ago
2252,0xa05c74d915f5d,,1,4 years ago
2253,0x0f19b85adb3d3,,1,4 years ago
2254,0xe88fa1221378d,,1,
2255,0x4128f4617209c,,1,
2256,0xaf4e597f6557b,,1,
2257,0x5eb2ac0a96b20,,1,4 years ago
2258,0xe22c0051b9205,,1,8 months ago
2259,0x3aeabbea800d8,,1,1 year ago
2260,0x62218c482cabf,,1,8 months ago
2261,0x5a38b19dde85a,,1,3 months ago
2262,0xe1dfb7c5c9e10,,1,
2263,0x4300de18bbb47,,1,9 days ago
2264,0x1f49e1fae7b48,,1,9 months ago
2265,0xb54629c0547b1,,1,3 months ago
2266,0xd156e832b2581,,1,
2267,0x34899807010cf,,1,
2268,0x55cf34223929a,cryptopunk237.e,1,9 months ago
2269,0x10a0b6e6b28e6,,1,
2270,0x47398f188d7d6,,1,
2271,0x38edd3cf955cb,,1,20 days ago
2272,0x02ed4191140a6,,1,1 month ago
2273,0xbbe846566f217,,1,1 year ago
2274,0x4cf28b4819b9c,,1,7 months ago
2275,0x389747708cfe6,,1,7 months ago
2276,0x5154bbf5043de,,1,4 months ago
2277,0xdb013c4bef167,thelibrarian.et,1,8 months ago
2278,0x051083a11f40a,,1,20 days ago
2279,0x9c19d45ff3e8e,,1,1 month ago
2280,0x7fadcb59db6d9,,1,7 months ago
2281,0x56244e7320fc9,,1,5 months ago
2282,0x34f26c617aa3e,,1,7 months ago
2283,0x9be8b3af14608,,1,
2284,0x420ba30684b88,,1,
2285,0x88fffa0b5bc97,,1,
2286,0x004aa3b4c6807,,1,
2287,0x6eb9c83b98af8,,1,
2288,0xd6756d55ee43b,juj.eth,1,6 months ago
2289,0xe8f35709dd036,,1,20 days ago
2290,0x4d92ad3932218,,1,2 years ago
2291,0x9448e65344569,hc5240.eth,1,2 months ago
2292,0x48724944608b7,,1,8 months ago
2293,0x44da33bbe2735,,1,16 days ago
2294,0x169f6e2ffc40b,,1,7 months ago
2295,0x00084121aec43,tchen.eth,1,6 months ago
2296,0xa996d391f6415,yck.eth,1,
2297,0x8ed4dac730359,,1,1 year ago
2298,0xde9b4206b1499,,1,
2299,0x9451f0ef7a6bb,,1,4 months ago
2300,0x50053a675ed47,,1,3 months ago
2301,0xdd7f515c9b48e,vegvault.eth,1,
2302,0x3fb3af1cacfe5,,1,
2303,0xe2ca7390e76c5,binary.eth,1,3 months ago
2304,0x6b52e83941eb1,,1,
2305,0x3fc4a7aae868c,,1,
2306,0x742b624878fb1,pinc.eth,1,5 months ago
2307,0xa5058b787d43c,jjflex.eth,1,3 months ago
2308,0x5e438ab731878,,1,
2309,0xf2212df817c93,bdeuce-vault.et,1,
2310,0x700111242c69e,,1,1 month ago
2311,0x0bf72f6fb2600,,1,
2312,0xbc91d03b996c1,,1,1 day ago
2313,0xf3ff88faf8d1d,,1,7 months ago
2314,0x6d8c09ea8d422,,1,7 days ago
2315,0x7ca8e6b21de82,,1,1 month ago
2316,0xcce6a9460c605,,1,5 months ago
2317,0x3c41f73374eea,,1,
2318,0x82cefc39c34fb,,1,
2319,0xe36752c781bb2,,1,13 days ago
2320,0x6660a65623a87,,1,4 months ago
2321,0x0bfc1ed338240,,1,7 months ago
2322,0x1b131a40b0e20,,1,1 month ago
2323,0x50c8c602dce64,,1,
2324,0x3819400f51e8f,,1,1 month ago
2325,0xf4f488fe8b8dc,,1,1 year ago
2326,0x0bf8897ee519f,,1,
2327,0x41254fe73d3b4,,1,16 days ago
2328,0x3b11267dfc4b9,,1,1 month ago
2329,0xc2380ded72191,chris-perdek.et,1,8 months ago
2330,0xa4547246086e7,,1,
2331,0x806388e04b758,,1,5 months ago
2332,0x136e964b4083a,,1,
2333,0xb78f306eaca1a,,1,8 months ago
2334,0x88bc3eb0d557a,,1,3 months ago
2335,0xde0580de58e75,,1,5 months ago
2336,0x3bc9c79e1166c,,1,7 months ago
2337,0xa3cd1123f4860,,1,12 months ago
2338,0xba29d4a45d2da,,1,4 months ago
2339,0x52bcd7a7720d0,blockblock.eth,1,9 months ago
2340,0x44d93e8ff74d7,,1,2 months ago
2341,0xef70b950aecd4,,1,
2342,0xa1108912adcbf,,1,1 month ago
2343,0xe920ba2d30e81,nftsalon.eth,1,1 month ago
2344,0x1f88ccc7f7a57,,1,
2345,0xd36da06c68aba,,1,
2346,0x46d9cf4003617,,1,
2347,0x983b1b658bf08,,1,2 months ago
2348,0xfd83bc05eab03,,1,1 day ago
2349,0xa3a4548b39da9,,1,1 year ago
2350,0xa02de3133877d,,1,
2351,0x4a298c587b08b,,1,10 months ago
2352,0xeab4440e98d7d,markherwig.com,1,5 months ago
2353,0x664aa3df0d6b9,coreycaplan.eth,1,8 months ago
2354,0xba5df4294a09c,,1,
2355,0x1e6cc43096c38,,1,7 months ago
2356,0x658a29fe953cf,,1,6 months ago
2357,0xa2b0d83821f6e,,1,8 months ago
2358,0xc51447ad3b831,0xchef.eth,1,
2359,0x7fa72f4f02fa4,,1,1 month ago
2360,0xd76bf6e6cf50b,,1,1 month ago
2361,0xc22b90da967c7,,1,
2362,0x79dd8fab0661d,,1,6 months ago
2363,0x59f51e6f37161,,1,18 days ago
2364,0x671f71bb73453,,1,1 month ago
2365,0x2b93c120f5caa,,1,1 month ago
2366,0x91b2e3b3bb589,,1,
2367,0xe65dd5d5631c3,,1,7 months ago
2368,0xbbe96dfafde8e,ankbul.eth,1,9 months ago
2369,0xc0bbc17910baf,,1,
2370,0x231bb3dcbd597,,1,
2371,0x0eeed2aa0d9e9,,1,8 months ago
2372,0x5cff885b44ef4,,1,1 year ago
2373,0x7cf4fb6c470fb,dawidc.eth,1,2 months ago
2374,0x98172111480cc,,1,
2375,0x8eea79f9c6da7,,1,
2376,0x99fa5ce33ba89,,1,8 months ago
2377,0x41a7a1f43a170,,1,
2378,0xc9ff792d842ce,sen69.eth,1,21 hours ago
2379,0x594f515bcab25,5458.eth,1,10 months ago
2380,0x50a3535b50248,,1,
2381,0xc4f370c6d3164,parquet.eth,1,3 months ago
2382,0xdb2497a2d3090,drunking.eth,1,8 months ago
2383,0x0c6481894a628,,1,1 month ago
2384,0xbc43fe36190c8,,1,
2385,0x1645b30527d8b,,1,
2386,0x56e75eca66137,,1,1 month ago
2387,0xa2d1ebf3b7d49,,1,2 months ago
2388,0xbda6ba3ad6245,,1,5 months ago
2389,0x4dd91f366e1ff,mcwop.eth,1,14 days ago
2390,0xc5a6349aedf57,,1,
2391,0xa6d3a33a1c660,,1,
2392,0x1e5aebcfdc780,,1,8 months ago
2393,0x0243f1796f9a7,,1,12 days ago
2394,0x8191cedd40867,,1,2 months ago
2395,0x900d3e6830ec6,ButtonNose,1,6 months ago
2396,0xb2e1515dfe9bd,,1,10 days ago
2397,0xdc463f26272d2,laissezbored.et,1,8 months ago
2398,0x53e872600cf73,,1,7 months ago
2399,0xb3d8c3e445039,,1,6 months ago
2400,0x89fce77fbdc37,,1,
2401,0x5062a11247456,,1,3 months ago
2402,0xaa32059aaade3,,1,
2403,0x80de2f874067b,,1,
2404,0xccc003f10b727,,1,2 months ago
2405,0xb3a4d18a160e1,,1,6 months ago
2406,0xa5ccc6d18a427,,1,
2407,0xfa2c1db22f7c2,,1,4 months ago
2408,0x6073ae7059582,asapether.eth,1,19 days ago
2409,0xf6f0e491c1aa0,,1,13 hours ago
2410,0x9026cc268eec3,natvault.eth,1,4 months ago
2411,0xe54c393e34ab8,,1,
2412,0x6b8b76303e304,,1,19 days ago
2413,0x3422322c561bf,ihaveareputatio,1,9 months ago
2414,0x7efa4d250881d,,1,
2415,0x8814c8b4f4f41,,1,1 year ago
2416,0xb363cf2998ade,,1,2 days ago
2417,0xb0f48f338d3e3,,1,9 months ago
2418,0xbd9e81eb2e9ba,,1,8 months ago
2419,0x668097bc23b4f,maxnorris.eth,1,
2420,0x5b54ca8d759f0,,1,8 months ago
2421,0x568f5ea8ff84a,btnk.eth,1,
2422,0xd562a0ad4fbee,,1,1 year ago
2423,0xc4824414f2cc9,saavedra.eth,1,
2424,0xb0182a35b8114,,1,3 months ago
2425,0x2727021c37701,cancan.eth,1,19 days ago
2426,0xb3958c17ddc57,,1,1 year ago
2427,0x8f58b7d6f42e5,,1,
2428,0x1528144aa96c4,,1,
2429,0x207a07230966c,5chmidty.eth,1,3 months ago
2430,0x02b100e9c1ce9,,1,
2431,0x387a8eff48093,,1,
2432,0xff3c83bfaa310,cryptomatics.et,1,4 months ago
2433,0x34489c1017ed7,,1,2 months ago
2434,0x6c2e5c7f0a50b,,1,4 months ago
2435,0xb4aa5aedf4dcb,kingkitegavault,1,10 days ago
2436,0x7f435e184e2d2,,1,
2437,0xc4d134c9440d8,,1,4 months ago
2438,0x3452b1327364d,kodokustudios.e,1,
2439,0x84bcc6db14e1b,,1,
2440,0x13f6f1134d1e6,alexx.eth,1,3 months ago
2441,0x55013e79dc8fb,dolphinwhale.et,1,8 months ago
2442,0x3833a533f811a,,1,
2443,0x769eec21a305b,,1,1 year ago
2444,0xead28e25ad83e,cryptopunk4968.,1,1 year ago
2445,0xdfa9e3c0d705c,,1,8 months ago
2446,0x1cc20398cad9d,,1,
2447,0xd34d42d1335ab,apeapebaby.eth,1,
2448,0x7b6107f5df88b,joshfenster.eth,1,9 months ago
2449,0x0a56b9c9bda7b,,1,
2450,0x19cbb6bd100af,,1,1 month ago
2451,0xd52fba65a5221,,1,
2452,0xe54a00d5418b4,,1,
2453,0x0529f32a47281,,1,7 months ago
2454,0xc55d765bbd35e,,1,
2455,0x1b2965dc3b169,sumrtime.eth,1,8 months ago
2456,0x67c669ca914ea,,1,7 months ago
2457,0x7c553919d52ff,,1,
2458,0x07dbc9423bc7e,quadrillion.eth,1,9 months ago
2459,0x131b2b74823be,,1,10 days ago
2460,0x7dbb654b84ab2,,1,26 days ago
2461,0xa27503e089ef0,nftrust1.eth,1,6 months ago
2462,0xabb20917a30d3,,1,6 months ago
2463,0xbbaec56b725a0,,1,15 days ago
2464,0x7c9b3f8930c83,,1,6 months ago
2465,0x5d68f45b826d7,,1,6 days ago
2466,0x68fb8be9256ff,,1,16 hours ago
2467,0xd394cf7e0c9f7,vashxvault.eth,1,2 days ago
2468,0xcb1336c36d0f1,,1,
2469,0x33eaaee9d0a61,,1,2 months ago
2470,0x73a6a002b9538,,1,3 months ago
2471,0x93c838add3ac7,dangiuz.eth,1,3 hours ago
2472,0xe6ddcc4bfc287,bradcm.eth,1,1 month ago
2473,0x683c4dbcbfbef,,1,
2474,0x392d4722c6142,xanta.eth,1,4 days ago
2475,0x9267eedbc2982,,1,14 days ago
2476,0xace8a51b234e0,,1,6 months ago
2477,0xd4d1567cb96c2,,1,4 months ago
2478,0x608bd05abb1d2,,1,1 month ago
2479,0x251feebd91dd0,,1,6 months ago
2480,0xace6f28261908,,1,1 year ago
2481,0x46b46931423e7,lancecannon.eth,1,8 months ago
2482,0x2d019bce8d4ba,,1,
2483,0x6b34dd13ce75a,artwitch.eth,1,23 days ago
2484,0x371b699d18081,,1,1 month ago
2485,0x037fd5b779c07,,1,6 days ago
2486,0xca37d80abd979,billbraskey.eth,1,2 days ago
2487,0x7e3c4a6304abc,roil.eth,1,1 year ago
2488,0x45c7811c459a4,🙅🏻‍♀.eth,1,1 year ago
2489,0xced462398bdfb,,1,1 month ago
2490,0xcd262b16421ac,,1,8 months ago
2491,0xf4bb4e19777a9,,1,1 year ago
2492,0xa46f24d23bb97,,1,
2493,0x7d39173b08564,,1,
2494,0xb0cb9cfac8d3d,,1,
2495,0x5a99fa495c894,,1,1 year ago
2496,0x0087d8098d22b,alphabandit.eth,1,8 months ago
2497,0x8f3b535044316,,1,
2498,0x4a7ca16fcc2f4,,1,
2499,0x534feb15eba01,,1,11 days ago
2500,0x98f8f5ce4cd90,,1,
2501,0x5ac3d92730961,,1,7 months ago
2502,0x5637321123171,,1,2 months ago
2503,0x1dfc617d01e56,,1,
2504,0xe0719af1123a4,,1,9 months ago
2505,0x4954b78cda38d,,1,1 year ago
2506,0x5bbb9dc847765,haui.eth,1,11 months ago
2507,0x81cb2287c60d4,,1,8 months ago
2508,0xcb63de5613de3,,1,17 days ago
2509,0xdf37ac79f8e9b,,1,
2510,0x8c0a11eb047c1,crumble.eth,1,19 days ago
2511,0x7c0b1fe2aaea1,,1,9 months ago
2512,0x965d9e3fccf52,,1,5 days ago
2513,0x71d1f0a05f82c,,1,6 months ago
2514,0xe8831f591ecfa,,1,7 months ago
2515,0x7971e007a4e4d,dansickles.eth,1,9 months ago
2516,0xb666c5deff9b2,,1,
2517,0x7c43825db9c66,art7.eth,1,3 months ago
2518,0xa1830e8d9f019,🍜🍜🍜🍜🍜.eth,1,1 month ago
2519,0x71b9df21780cc,,1,1 month ago
2520,0xb91ac9981eb3d,,1,
2521,0x79b5259dc0fcb,3th.eth,1,10 months ago
2522,0x3cda837ec22ce,,1,6 months ago
2523,0x129b043520711,,1,3 months ago
2524,0xcbb9ab939e21c,,1,6 months ago
2525,0x694d18ed4fbb7,,1,7 days ago
2526,0x6e55a68ee2ddc,,1,3 months ago
2527,0x02d81938f36af,,1,6 minutes ago
2528,0xd65269712ce78,,1,6 days ago
2529,0x98e9de3364f73,,1,7 months ago
2530,0x773d161310d07,,1,
2531,0xf99cb9a0ee66f,,1,
2532,0xfdff5e5d5bc0b,,1,1 month ago
2533,0xb5f9b21b1dc32,,1,1 year ago
2534,0x074cfe8634ac0,,1,1 year ago
2535,0x6e0d9c6dd8a08,jesse.xyz,1,
2536,0x1bb77204b2ed6,,1,1 year ago
2537,0x570b4cba2680d,,1,19 hours ago
2538,0x3f072aad66e45,,1,4 months ago
2539,0x8e2dc68f3d3a8,,1,4 months ago
2540,0xed90fb6736179,,1,
2541,0xb6d94226eab23,,1,
2542,0xdf7c893b27ede,,1,5 months ago
2543,0xa9d5f8eeccdbc,,1,1 year ago
2544,0xe34906452d226,corduroys.eth,1,4 months ago
2545,0x9ccd4bf14f8e3,,1,
2546,0x89621b037cdaf,imgnhw.eth,1,
2547,0xc6ef4a74f96fc,,1,9 months ago
2548,0x4654f56a64301,,1,
2549,0xfc04833ca66b7,,1,
2550,0xe586602f4841e,,1,1 year ago
2551,0x172004734f85b,,1,
2552,0xfc2afe8f63fee,,1,
2553,0xf837045a01a02,,1,
2554,0x22c6494fbb4cc,petert.eth,1,5 months ago
2555,0x2e3aefc287fd0,,1,6 months ago
2556,0x51f39b244d0c1,,1,
2557,0x8c6e565a72b46,,1,1 year ago
2558,0x932dbe91349cc,,1,
2559,0xa116310bda9d7,,1,
2560,0x02745a825647c,,1,2 months ago
2561,0x862e840c2f7ed,,1,
2562,0x9624f42eda6bc,bl3ich.eth,1,9 months ago
2563,0x130ca48dabf46,,1,17 days ago
2564,0xfb6223ea050a0,jgcfyi.eth,1,6 months ago
2565,0x9502335fb7193,,1,19 days ago
2566,0x9746f004a75b7,dollar.eth,1,6 days ago
2567,0x1cfbf511a3f67,gld.eth,1,2 months ago
2568,0x74dacd80d9b67,,1,1 day ago
2569,0x4dc01379b9e0a,,1,
2570,0x1e20a73d3c5bf,,1,6 months ago
2571,0x7786089b52320,casey.eth,1,4 months ago
2572,0xe300c56e979f5,,1,
2573,0x77049c876ec20,ethanj.eth,1,
2574,0x36e6bfa2d2a96,,1,
2575,0x3dee682ad8fc1,,1,1 year ago
2576,0x634d25def6c3a,,1,
2577,0x5ff76c46797ce,zerocap.eth,1,1 month ago
2578,0xa52763584639f,,1,7 months ago
2579,0x2975856bbb151,otiswealth.eth,1,
2580,0xb01e39a496547,punk4722.eth,1,3 months ago
2581,0xb358f6833b7ba,,1,
2582,0x84c63ecd49f41,,1,11 months ago
2583,0xf7773cfa48947,,1,5 months ago
2584,0x2762c7fe932b8,,1,1 year ago
2585,0x2d8d75d4ba64e,,1,19 days ago
2586,0x5bfbbbca6c9d7,,1,7 months ago
2587,0x7e16a4c29b75e,,1,
2588,0x918a15c6562d6,,1,
2589,0x1f7aedfcfe51b,,1,1 month ago
2590,0x46b695dc65aca,,1,
2591,0x080c1ee5df627,,1,7 months ago
2592,0x2259cc4ff58bc,vault.kiwi.eth,1,
2593,0xa97cb1feac884,,1,
2594,0xc0d17c6cb78c9,,1,
2595,0x07a75ba044cda,frigo.eth,1,24 days ago
2596,0x405b96e2538ac,,1,
2597,0x027750420d3f4,,1,8 days ago
2598,0x69658f46ecc65,,1,1 month ago
2599,0xf40d8fe482157,punk4242.eth,1,
2600,0x402735c5cec69,ryz.eth,1,
2601,0xa70b326e9dde6,,1,
2602,0x3ca56a925adf8,,1,5 months ago
2603,0x0dc95893465c7,,1,
2604,0xe896675803da7,,1,1 month ago
2605,0x3e62ce10233c0,0xmic.eth,1,
2606,0xd75d100ab18d4,,1,8 months ago
2607,0xfad832824c1f2,,1,8 months ago
2608,0x275952c3bda3c,,1,
2609,0x383a82e5785de,sosonasty.eth,1,
2610,0xd9b3e96e9a2fe,,1,5 months ago
2611,0xde2ba4137523c,,1,1 year ago
2612,0x43ce6f402b40e,,1,11 days ago
2613,0x7cd7a5a66d3cd,,1,4 months ago
2614,0x6d96b763131b9,naszam.eth,1,
2615,0xafcca6f04fa70,,1,
2616,0x51b2c29c40ea3,,1,
2617,0x01076e09dcb25,,1,1 year ago
2618,0x609630f177090,,1,8 months ago
2619,0xfc80c39b54ad5,,1,1 year ago
2620,0x856d503bf5cd7,,1,
2621,0x4295500128735,,1,
2622,0xacd97c5b040be,,1,
2623,0xfabbe64bc8779,palisvault.eth,1,3 months ago
2624,0xb63633d726a54,zunk.eth,1,
2625,0x3b3d5008e0945,,1,
2626,0xd68deb30db302,,1,
2627,0x244186297b43b,,1,
2628,0xfed1e58434d51,,1,
2629,0xda784526e5032,5936.eth,1,4 months ago
2630,0x4372d07a967b1,,1,
2631,0xcbf97b07fb660,,1,
2632,0x23f67feb67a3a,,1,1 year ago
2633,0xe78de326bf799,,1,1 year ago
2634,0xd5cbc23a467ad,,1,
2635,0xa135089a26f7b,,1,5 months ago
2636,0x886bdd127a5d9,,1,3 months ago
2637,0xa4ab20624dd41,,1,8 months ago
2638,0x76f1815b6bbfb,btccat.eth,1,8 months ago
2639,0x0f6e5f647c479,,1,
2640,0x2de14db256db2,sina.eth,1,9 months ago
2641,0x4869a74bb1c3e,,1,2 months ago
2642,0x28a101605f0d7,,1,4 months ago
2643,0x3f1ac84eccec9,,1,3 months ago
2644,0x4be52934b8464,,1,8 months ago
2645,0x6c8ee01f1f8b6,keungz.eth,1,8 months ago
2646,0x6f8f40153f0a7,,1,
2647,0x38b6b4387ff27,3lauvault.eth,1,1 month ago
2648,0x4147717104cc7,,1,17 days ago
2649,0xcba65e9b39c3a,,1,11 months ago
2650,0x96728ab4c2990,,1,
2651,0xc4ac38dc5d4f5,,1,
2652,0xddff13586d28f,,1,1 month ago
2653,0x577ff1df8c33f,,1,8 months ago
2654,0x9b45755f1f2f8,,1,8 days ago
2655,0x87ef625ced38d,,1,1 month ago
2656,0x096abb7c89beb,,1,
2657,0x7ffca7040ff67,,1,4 months ago
2658,0xdee19f2692a45,breakfree.eth,1,3 months ago
2659,0xfaff9a8e78ba6,,1,3 months ago
2660,0x742b470e13255,,1,8 months ago
2661,0x2fabfc888071c,,1,1 year ago
2662,0xc4ee33c00900d,rebol.eth,1,1 year ago
2663,0x327aed27b5fe8,purplelips.eth,1,
2664,0xc6363095bb1f4,,1,3 months ago
2665,0x4a39ae58b6051,punk7635.eth,1,
2666,0x66f6d63919934,,1,1 year ago
2667,0x3e3567eb03521,debra.eth,1,9 months ago
2668,0xd47b7747f2787,,1,
2669,0xaa120906bbe46,,1,
2670,0x9dbe56e659611,,1,1 month ago
2671,0xd9ff1fbd68e91,museumofcryptoa,1,
2672,0xa289be512b5a3,,1,1 year ago
2673,0x57809b0911cf9,valorvault.eth,1,5 months ago
2674,0xc72fc5ec2b361,,1,4 months ago
2675,0x363b4bfeffef8,,1,5 months ago
2676,0xd4e1c4b1ba06b,,1,3 months ago
2677,0x9a55043483dcc,carpediem.eth,1,16 days ago
2678,0x590cfb3e1c9db,,1,5 months ago
2679,0x8e4cdc6044664,,1,1 year ago
2680,0xb989b88c1b41a,,1,
2681,0xee76abfc14778,,1,9 months ago
2682,0x8b6316060f0d2,,1,29 days ago
2683,0xf480935955d38,,1,20 days ago
2684,0xf14ff6c6c3217,deadspin.eth,1,7 months ago
2685,0x39ba319c2e57a,nftlogo.eth,1,9 months ago
2686,0xa16ab54e2a9d2,,1,24 days ago
2687,0xc2d1c329655e7,,1,
2688,0x2f20872b1517b,,1,3 months ago
2689,0xd7e683c992855,dudly.eth,1,
2690,0xfd682c4dedac0,frixion.eth,1,
2691,0x9950fe8bb33d7,,1,
2692,0xf3ceddc2181ea,,1,
2693,0x83fa1eff1b4a1,,1,6 months ago
2694,0xa40c8ac5a6a06,,1,8 months ago
2695,0x9dabb5e4a4936,,1,
2696,0x5ad2d727cfa73,,1,1 month ago
2697,0x23417b5c5fb38,,1,
2698,0x4d0dc3590f4a0,,1,9 months ago
2699,0x297946c261710,xxyyjshchxjehxj,1,10 days ago
2700,0x334560fcfdec3,9972.eth,1,2 months ago
2701,0xd02dab9a954da,,1,
2702,0x9469e73510234,,1,
2703,0x3215d92f7f2a9,alexxvault.eth,1,1 day ago
2704,0x066d0ba423756,mitchwainer.eth,1,9 months ago
2705,0x963eb0638a2fe,,1,23 days ago
2706,0x234e486279dc0,,1,1 year ago
2707,0xeb97952c39c36,,1,1 year ago
2708,0x19b5797670f84,,1,2 months ago
2709,0x22de60776e093,,1,3 months ago
2710,0x293ed38530005,,1,
2711,0xc4dd8e820ff87,br0se.eth,1,2 months ago
2712,0x36ca4898d224a,,1,1 year ago
2713,0x36e3b8036faa6,,1,5 months ago
2714,0xd95c18c277dbe,,1,16 days ago
2715,0x74929593101f3,,1,4 months ago
2716,0xce08d66d2824a,,1,
2717,0x80f5e30598394,,1,
2718,0x0a271b33e1b3b,,1,1 month ago
2719,0x0dc1c59c74eae,,1,
2720,0xc1ac1b51c4fdf,,1,
2721,0x8bc3332b8bfd8,,1,
2722,0x284660456037b,,1,
2723,0x4e142fe48c710,nftboi.pxg.eth,1,12 days ago
2724,0xcecfb5155a25f,,1,
2725,0x2be830c9c4a3e,3690.eth,1,8 days ago
2726,0x2587a57f89c5e,,1,7 months ago
2727,0xd88227fc23717,artmonk.eth,1,
2728,0x8eaa0372f03ce,dolator.eth,1,6 months ago
2729,0xfd597f7259b94,,1,16 days ago
2730,0xbfc4fbbec37c2,,1,9 months ago
2731,0xa62d7ad2fddba,0xtwss.eth,1,7 months ago
2732,0xaa385136024ab,,1,8 months ago
2733,0xc60d5b5fb1389,,1,8 months ago
2734,0x83068ce3210e7,,1,2 months ago
2735,0x321022c75fd37,,1,12 months ago
2736,0x72876c85b32ea,,1,
2737,0xef6d69922bc2d,,1,15 days ago
2738,0x6feeea64029f7,0xste.eth,1,10 months ago
2739,0x7ed716a3c0a63,amun-ra.eth,1,2 days ago
2740,0x2c4090a54bd6e,mattmedved.eth,1,1 year ago
2741,0x6e998514b41ba,,1,16 days ago
2742,0xdaab06810f942,alcoco.eth,1,
2743,0x7b0b8e48e5629,,1,10 days ago
2744,0xd4823ebec6d24,,1,8 months ago
2745,0xc6ae2df7818f0,,1,1 month ago
2746,0x60129ecfccf29,jhos.eth,1,1 month ago
2747,0x4600a57f6c9ec,,1,10 months ago
2748,0xe21788f0887ac,,1,3 months ago
2749,0xbd340bd093687,,1,
2750,0x707d6ead1e32e,,1,2 months ago
2751,0xa7f3c74f02557,,1,1 year ago
2752,0xc52ac49605340,,1,1 month ago
2753,0x62f9c93dca19e,,1,
2754,0xabf7aba9646c5,sarahtavel.eth,1,10 months ago
2755,0x04ae2f0bda04f,,1,1 year ago
2756,0xdb1cf642c4299,,1,1 day ago
2757,0x2a8c1d3be5391,,1,
2758,0x049ae3487543d,,1,6 months ago
2759,0xbcf5aee79292c,,1,
2760,0xeb504938845c5,,1,
2761,0x92e6f7ad96f93,,1,7 months ago
2762,0x315014d50459d,jpgpapii.eth,1,
2763,0x1a21233b89ca0,,1,7 months ago
2764,0xc0bf18a6cfaf6,radicalbeast.et,1,
2765,0x36864b2234877,chi.eth,1,1 year ago
2766,0xcb76200a08867,,1,7 months ago
2767,0x700e6729c190f,,1,8 months ago
2768,0xbb0d4ccf4e095,,1,5 months ago
2769,0xdd2c54998c5b8,,1,1 month ago
2770,0xcfff9d4fc0dca,,1,
2771,0xe3e39161d35e9,,1,5 months ago
2772,0x050159029e813,,1,1 year ago
2773,0xd21ff46d31e01,saintdoge.eth,1,2 months ago
2774,0x88da36152d469,rustybill.eth,1,9 months ago
2775,0xbdc21fae769d7,moonwhale.eth,1,4 months ago
2776,0xc9d483b27701a,,1,4 months ago
2777,0xeb99b65f22b46,,1,
2778,0x2d8b2e8bdc0c4,,1,
2779,0x52ecc7893234a,,1,
2780,0x5a7fefc825afa,flowergarden.et,1,
2781,0x68a3eddc30063,,1,9 months ago
2782,0x6570829700ced,simbacoin.eth,1,1 month ago
2783,0xee59772b0b13d,,1,15 days ago
2784,0x0f70b8cf9f58b,,1,
2785,0x90a3c7a3da89b,melichior.eth,1,
2786,0xb8c50ae125760,virtualbeings.e,1,1 year ago
2787,0xcedd5bc498183,,1,
2788,0xe2dcf1579804e,fuckajob.eth,1,3 months ago
2789,0xad3dbf17e7460,,1,2 months ago
2790,0x44b51387773ce,,1,4 months ago
2791,0x4a174d08e2c05,,1,1 month ago
2792,0x5d2354461b52c,,1,8 months ago
2793,0x37b468e1d4616,,1,7 months ago
2794,0xfe202370330f1,karthage.eth,1,
2795,0x865c2f85c9fea,pet3rpan,1,1 year ago
2796,0xc6136d5d74735,,1,8 days ago
2797,0xc1894e6a52c4c,0xxx.eth,1,7 months ago
2798,0x25006d785c443,,1,9 months ago
2799,0x377bfc4ea3c63,,1,15 days ago
2800,0xb806136280f08,,1,14 days ago
2801,0x0eefd13336d1e,notire.eth,1,
2802,0xd35b392b385ac,dagger🗡.eth,1,5 months ago
2803,0x7cd3fc0e4ef95,,1,9 months ago
2804,0x968fa02ec46c8,,1,10 months ago
2805,0xedeba8c580cec,,1,
2806,0x3f2a1ea0e8f71,,1,5 months ago
2807,0xdaacb293463a5,,1,3 months ago
2808,0xeff6de260d3ec,,1,1 day ago
2809,0x7772881a615cd,nftommo.eth,1,9 days ago
2810,0x0f4f465ba2536,aeonlf.eth,1,9 months ago
2811,0xb20e90be5e119,,1,2 months ago
2812,0x00584363400c0,,1,9 months ago
2813,0x629d6688dd454,robertclarke.et,1,13 days ago
2814,0x15235f0450960,,1,
2815,0x77f81d0a36ac8,,1,8 days ago
2816,0x0bb14d47a450e,,1,
2817,0x369db7f80ea8e,,1,4 months ago
2818,0xf5bd2ee77525b,,1,
2819,0x02e6d9c11f61e,,1,3 months ago
2820,0x696ed7b26f4b0,beautifulnfts.e,1,1 month ago
2821,0x13c93604d93e5,,1,
2822,0x840de99869974,rh0729.eth,1,
2823,0xdc5556ff5f67b,jayrittberg.eth,1,3 months ago
2824,0xb790f3858606c,,1,5 months ago
2825,0xd32ac78360f78,yair.eth,1,1 month ago
2826,0x7989e741e0859,potatoesforlife,1,3 months ago
2827,0xe7b3d473411dd,,1,6 months ago
2828,0x7f23c9047c7f2,0xchang.eth,1,
2829,0x42f9134e9d3bf,kain.eth,1,9 months ago
2830,0xb6d67e7aa69ae,,1,3 months ago
2831,0x67c7530b9dbfb,,1,8 months ago
2832,0x86c76089c3724,,1,5 months ago
2833,0x87d3a7ded5a81,,1,6 months ago
2834,0xefd6c7da67a81,,1,
2835,0x2cb6be40cda9f,,1,10 months ago
2836,0x32cc2ec897f21,notsofastgaller,1,8 days ago
2837,0xb78305ee2daf4,dandychiggins.e,1,4 months ago
2838,0x53887f0dee06c,,1,3 months ago
2839,0xe553fe5b71a23,zenecavault.eth,1,1 month ago
2840,0xe95d23eaccae0,,1,2 months ago
2841,0x426c9e8a9d97d,,1,6 months ago
2842,0xa5e84e96725ee,,1,
2843,0xc090c727030c2,,1,
2844,0xa98220f6dc5df,,1,
2845,0xda24f041a3dc3,,1,3 months ago
2846,0x914e73de7d0d1,,1,
2847,0x171193fa2fcdb,,1,
2848,0x4e97fa0644605,,1,
2849,0x167f15a15a798,,1,8 months ago
2850,0x1e9377a12bb98,,1,8 months ago
2851,0x01ea13520fc2c,,1,1 month ago
2852,0x42f3f76ba5202,guyzalaxy.eth,1,4 months ago
2853,0xcbbc8d8963a44,,1,1 month ago
2854,0x733428f811d11,,1,8 months ago
2855,0x0857060fd3cd6,,1,5 months ago
2856,0x5375f65a744f5,,1,5 months ago
2857,0xb6b4a02dca517,,1,
2858,0x8c794d7345a81,,1,
2859,0x3a172ef0a46c2,,1,9 months ago
2860,0x3ca987e9613f6,,1,9 months ago
2861,0x91364516d3cad,ben.eth,1,11 days ago
2862,0x3efa2f7b5bafd,thomascrownjewe,1,
2863,0x07379370e6900,,1,1 month ago
2864,0x7fd2584729dbe,,1,
2865,0xf1670f281f1d4,,1,
2866,0xf5f26a6041f27,,1,1 year ago
2867,0xc4d20e264d0ee,,1,3 months ago
2868,0xdb1a6887e9826,munted.eth,1,5 months ago
2869,0xd91341f739c2f,,1,2 months ago
2870,0xa49f53249e03a,,1,
2871,0xc84a3ea85cf60,,1,9 months ago
2872,0xd923a1405ec8a,,1,5 months ago
2873,0x89d1d8f899db2,,1,8 months ago
2874,0xf55cfe8bf93cb,,1,1 year ago
2875,0x3993996b09949,,1,4 months ago
2876,0xe36d97e77fae5,policepunk7550.,1,
2877,0xfc7d0729639be,egomint.eth,1,
2878,0x646fbadf12270,,1,1 month ago
2879,0x4df7652d2ceba,kevko.eth,1,1 year ago
2880,0x140ecd8c8fa5c,cobblevault.eth,1,
2881,0xcedec45e06cbb,discombobulated,1,9 months ago
2882,0x40ac989f5ddce,voxelmatter.eth,1,4 months ago
2883,0xfa1c022f5aa01,0xfa1c0-two,1,1 year ago
2884,0xc88542913c89c,couchpotato.eth,1,9 months ago
2885,0xb089425c9c078,zhaobowen.eth,1,6 months ago
2886,0xa7499aa6464c0,bneiluj.eth,1,1 year ago
2887,0x6c40798acaec7,,1,1 month ago
2888,0xe4b93dc652f45,,1,3 months ago
2889,0x694eda027342a,,1,1 month ago
2890,0xc30be7a56b45a,,1,10 months ago
2891,0xdf9c93b9b6c23,,1,
2892,0xca105c17941f7,,1,1 year ago
2893,0xd2744ba6ee613,,1,
2894,0x0199f4bef6421,,1,7 days ago
2895,0x4874211da929d,thunderstruck.e,1,2 months ago
2896,0xd96d9dabeff40,,1,2 years ago
2897,0xa9049644c515e,,1,
2898,0xa876e25a065d8,,1,2 years ago
2899,0x1bcd9f67f027f,,1,3 months ago
2900,0x55e1490a1878d,,1,2 months ago
2901,0x95f4b329e61e7,,1,1 day ago
2902,0x7e9045be45bad,,1,1 year ago
2903,0x4297118a9a3bb,,1,
2904,0x251ce99652c44,,1,1 month ago
2905,0xd1d49d39a3196,,1,
2906,0xf42a339f93c1f,tippy.eth,1,7 months ago
2907,0xa494057f91e42,,1,14 days ago
2908,0xb2e5751f5cc32,,1,4 days ago
2909,0x51df4c546385f,,1,14 days ago
2910,0x997aff12f28b9,m01222,1,1 year ago
2911,0x722645577ee4b,cloudrob.eth,1,8 months ago
2912,0x237a86eaed0df,,1,3 months ago
2913,0x631b2bf82637f,,1,5 months ago
2914,0xd809bbde36cb8,,1,5 months ago
2915,0xb2dca36456f49,,1,1 year ago
2916,0x30e62300d679a,,1,3 months ago
2917,0xaee55fb502f85,,1,
2918,0x655a0301d66b2,,1,
2919,0x789e8dd02ffcc,etekis,1,1 year ago
2920,0x2b18e9c6b073f,7765.eth,1,8 months ago
2921,0x5fbee92aaf5c6,,1,1 year ago
2922,0x28f4429bb828a,DocMartens,1,
2923,0x582b2164d8c0a,,1,
2924,0x3dae9a20e3943,,1,9 months ago
2925,0x871f66e0c9c77,,1,
2926,0x07e15867d8da2,,1,5 months ago
2927,0xfb184169f71d6,,1,8 months ago
2928,0xbd23b279637e3,,1,6 months ago
2929,0xb693ec0622f71,,1,1 year ago
2930,0xd7cc2d0e400f6,,1,3 months ago
2931,0x065b4b7bc741d,doubleplay.eth,1,2 months ago
2932,0x25054f27c9972,👨🏼‍✈.eth,1,5 months ago
2933,0x6f3deba69e208,bigpaulthomas,1,8 months ago
2934,0x7fb50260f3a70,,1,
2935,0x266892ed0d40e,,1,
2936,0xa62dca05db659,,1,
2937,0x56c92fd14d2ac,,1,
2938,0xce2bec231cb2f,,1,1 year ago
2939,0x575f6540c16a7,,1,
2940,0x64597fd32302d,demos.eth,1,5 months ago
2941,0x675e725cbf2c1,,1,16 days ago
2942,0xa59f5ff4e3ddf,gdao🏦.eth,1,
2943,0x4d98f940bba7e,,1,8 months ago
2944,0xbfcfddf74d25c,0xdens.eth,1,1 year ago
2945,0x2f4f0f39c86d0,,1,4 months ago
2946,0xa6c25a5a6585f,,1,
2947,0xb67d92dc830f1,,1,4 months ago
2948,0xab4cc1cca2724,Collection-Goda,1,8 months ago
2949,0x4f5ecc9c800aa,,1,8 months ago
2950,0x224f17bb6610c,,1,3 months ago
2951,0xc493f04351c8f,,1,14 days ago
2952,0xa12ac3fbefcb9,,1,9 months ago
2953,0x06550f45f6a0c,evault.eth,1,
2954,0xcc0e9a9e77cdd,,1,
2955,0x8f217d5cccd08,,1,7 months ago
2956,0x818ba5ae19131,,1,
2957,0x98e9db4feafc7,,1,8 months ago
2958,0x46dbf3a178c59,,1,
2959,0xa4c8d9e4ec5f2,soldmangachs.et,1,7 months ago
2960,0xb33e26d815eb3,,1,3 months ago
2961,0xe03a5189dac81,dandelion.eth,1,8 months ago
2962,0x43b9f740e2f94,,1,
2963,0xdf002e9067fc7,,1,
2964,0x41ab08bed89c3,,1,
2965,0x228d3c657b8e5,,1,3 months ago
2966,0xa3b6e1577b003,,1,9 months ago
2967,0xc10d5f8940658,,1,
2968,0x10e2cfcb09918,,1,1 month ago
2969,0xbe051961e8b85,,1,17 days ago
2970,0xb813c62ad216a,,1,2 days ago
2971,0xb907e8d3f9ab2,metamarc.eth,1,1 month ago
2972,0x6d9a2ec158a9b,,1,1 year ago
2973,0x9a15687cb70c4,,1,
2974,0xd76c364963c3d,,1,
2975,0x3641e13574d9b,,1,
2976,0xabf0bab9d9a1c,,1,8 months ago
2977,0x12bcf162bcaab,diss.eth,1,9 months ago
2978,0x05b2ad74e7387,,1,4 months ago
2979,0xb2dd7f7a0c943,,1,3 months ago
2980,0xdd8afc7436510,,1,9 months ago
2981,0x70f1916f70525,,1,1 year ago
2982,0x351958d9a8985,,1,22 days ago
2983,0x1f87eaca03ee8,,1,
2984,0x123be94bca3e5,,1,
2985,0xacb7903219451,,1,
2986,0xcecdc8e6309bc,,1,
2987,0x695626a661831,ivanhodl.eth,1,9 months ago
2988,0xe254b3ea00a92,jtb.eth,1,6 months ago
2989,0x2584fcefec2fe,,1,8 months ago
2990,0x14d7ab124eef0,,1,1 year ago
2991,0xec20daf80b66e,,1,1 year ago
2992,0xac42d88641156,,1,
2993,0x2f9e192e4d399,,1,
2994,0xbf9f9073ffe94,,1,10 months ago
2995,0x7d65bba2e829f,,1,1 month ago
2996,0x16a7cf1b739fc,tv3636.eth,1,9 months ago
2997,0xce41429cc8d2e,,1,
2998,0x382681f262e3a,,1,12 months ago
2999,0x963408d71a6ef,,1,
3000,0x507bd0790febc,,1,8 months ago
3001,0xab9a363e67f8a,,1,2 months ago
3002,0x48af2bd40905f,petitcaillou.et,1,3 months ago
3003,0x8a5a244b08678,mnemonic.eth,1,10 months ago
3004,0x9fe13c659d7a3,jordanlyall-vau,1,
3005,0xff64a18dcbfe2,,1,3 months ago
3006,0x9de193e246f9a,,1,
3007,0xd6f6adf60bbdd,,1,
3008,0x8980da95595a1,,1,
3009,0x9179de43eafb0,,1,1 year ago
3010,0x0b9248deee2f5,,1,
3011,0x484a12a27e8c9,freezedrychief.,1,8 months ago
3012,0x19dbeb26e9e08,,1,
3013,0x724b52639c330,,1,5 months ago
3014,0x39edb9b67ced3,,1,
3015,0x00014f7b47769,,1,
3016,0x70fcbdb357a43,,1,
3017,0x3babd24c918ab,,1,1 month ago
3018,0x86f5892f243d0,,1,
3019,0x598b014cbd88f,,1,8 months ago
3020,0xb260eef285a44,,1,
3021,0x80e2df6a4a90a,,1,1 year ago
3022,0x7ab1957d84911,fenomeno.eth,1,3 days ago
3023,0x66058cd905a2d,,1,
3024,0x8a4ece6c97643,,1,
3025,0x5cf24421d9548,readyfor.eth,1,5 months ago
3026,0x2146a3d229d08,,1,
3027,0x6793f8cb15b84,,1,9 months ago
3028,0x785bc2484a15d,,1,3 months ago
3029,0xa6d449a30ba61,,1,8 months ago
3030,0x25cb962a60bba,,1,
3031,0x0314cc74e461d,,1,
3032,0x64beec1934a80,,1,5 months ago
3033,0xbf7f4eb2e705a,,1,
3034,0xfed05b6bacc40,,1,8 months ago
3035,0x2d45db9d296db,,1,1 year ago
3036,0x07f4f4ad75e0b,,1,
3037,0x2843ab335c922,,1,13 days ago
3038,0x5e7ab98d1d519,krochek.eth,1,1 year ago
3039,0x3c0d7b05c390c,,1,3 months ago
3040,0xa0efdc04e7186,,1,10 months ago
3041,0x36051a021e69c,,1,1 month ago
3042,0x7fb48df40bf81,knowndistance.e,1,1 month ago
3043,0x59d4fd60a2505,,1,28 days ago
3044,0x5d4fd985ee4d1,,1,1 year ago
3045,0x4b6c722a60c77,,1,
3046,0x6b86b1eee2395,flipcityvault.e,1,
3047,0xcb8172da4bf02,,1,8 months ago
3048,0xac208f311616b,toga.eth,1,2 months ago
3049,0x277b68855f7b7,,1,
3050,0xd2d70bda86d2c,,1,1 year ago
3051,0xc5417a0fe9a7f,,1,1 year ago
3052,0x917a93005f428,,1,
3053,0xa53cf9e377334,jackparker.eth,1,12 days ago
3054,0x188408ef0c262,illusiveape.eth,1,29 days ago
3055,0x32539b93b9723,policepunk4646.,1,5 months ago
3056,0xc883a79e8e459,feld4014.eth,1,
3057,0xf49eb4f047ae0,,1,14 days ago
3058,0xad0460d0c672e,,1,8 months ago
3059,0xbb634e147b273,,1,2 months ago
3060,0x9320ad044d48e,,1,7 months ago
3061,0x977089ca5b701,vault.whom.eth,1,5 months ago
3062,0x0bc07389c28e3,,1,4 days ago
3063,0xcfdb364025b5b,alfievault.eth,1,
3064,0xabdfa75a36c27,,1,13 days ago
3065,0x3c087276127c0,,1,3 months ago
3066,0x52768f4691507,,1,11 months ago
3067,0x8c2b143b0276b,,1,2 months ago
3068,0xccea675f0e612,,1,
3069,0x565cad69921b0,,1,6 months ago
3070,0x8e3fabf5a1e4b,,1,8 months ago
3071,0xe8bd506a49811,,1,3 months ago
3072,0x7cb257dd1f696,,1,
3073,0xce7e286294954,,1,6 months ago
3074,0x1d1c9dad9a24b,kittyvault.pcc.,1,8 months ago
3075,0x830cc132dd66f,thefunnyguys.et,1,1 month ago
3076,0xd478df699a99e,,1,
3077,0xedb309676adf6,,1,
3078,0x6f7c4148ab6e8,,1,6 months ago
3079,0x859ba94ff84f4,,1,5 months ago
3080,0xba45f804934ca,5000x.eth,1,5 months ago
3081,0x047d0cb513a2c,,1,6 months ago
3082,0x28d804bf2212e,geo.eth,1,8 months ago
3083,0xe2b1081dc2770,roosh.eth,1,
3084,0x4bc6fe8c58926,,1,
3085,0xdb81a847b3711,,1,9 months ago
3086,0xb718727e7c8a4,3155.eth,1,8 months ago
3087,0x10b26700b0a2d,hongbo.eth,1,7 months ago
3088,0x6277a1073dfbe,point-grab-capi,1,15 days ago
3089,0x41f9229de6a2b,,1,5 months ago
3090,0xa7d4e98fddef3,,1,8 months ago
3091,0x54c21b7d20836,,1,5 months ago
3092,0x31360112030a5,,1,1 month ago
3093,0x65e129affb174,,1,
3094,0x30040b5455492,,1,8 months ago
3095,0x084334dff7152,sujc.eth,1,7 months ago
3096,0x75c7bc106f8cf,bleez.eth,1,19 hours ago
3097,0x42bac6b0539dc,,1,
3098,0x71f06f6bd462a,Japone424,1,6 months ago
3099,0x62050220633af,vault.mondoggg.,1,
3100,0xc5cf9f8a38b21,,1,1 month ago
3101,0xe6683e6aae795,harperrules.eth,1,
3102,0x0dc857aac9667,2916vault.eth,1,
3103,0x0b8f4c4e7626a,artchick.eth,1,10 months ago
3104,0x4bbabd5870e2f,,1,
3105,0xc01c78fd32403,,1,3 months ago
3106,0xcaedc97b08b93,,1,2 months ago
3107,0x4e3eb75448335,,1,8 months ago
3108,0x903f5991587e5,wiseowl.eth,1,1 year ago
3109,0x4ff05543d3a53,,1,5 months ago
3110,0x80dedf740fcc2,,1,9 months ago
3111,0x739e2c99f019c,pichiruchi.eth,1,3 months ago
3112,0x3ab9d0538ce84,,1,1 month ago
3113,0xc2e26de7dd36d,,1,5 months ago
3114,0xf82909c1095e0,,1,
3115,0xa1ed22466308b,alex666.eth,1,11 months ago
3116,0x7b012ea364b78,,1,8 months ago
3117,0x9733bab0baeae,,1,1 month ago
3118,0xcb4de7db08b4d,,1,1 year ago
3119,0xa52d736af59a7,,1,9 months ago
3120,0x69bb864c0ab40,gab.eth,1,8 months ago
3121,0x2b290f41af8e0,,1,1 month ago
3122,0x38c6cedbfb240,,1,7 months ago
3123,0xb622ea682c54b,kingethan.eth,1,10 days ago
3124,0x72fad4173180f,,1,1 month ago
3125,0xaf20e2e1dca5d,,1,
3126,0x3bcc6838418d3,,1,8 months ago
3127,0x44355572efa48,,1,2 months ago
3128,0xdc6700bdfe582,,1,
3129,0xe39abf100b99f,sonicblue.eth,1,2 months ago
3130,0x49705967e4a9e,grunar.eth,1,7 months ago
3131,0x2f7f6f678f18d,,1,2 months ago
3132,0xda022d23ca13b,,1,5 months ago
3133,0x7df88abe1b9ed,,1,
3134,0x324f6ead99aed,chomper.eth,1,7 months ago
3135,0x28996b74bea1c,asgrow13.eth,1,
3136,0xb32b4350c2514,flur.eth,1,6 months ago
3137,0xa69f30ea6573d,,1,
3138,0x87b671168a444,,1,9 months ago
3139,0xf7b3226e803b2,twinrafters.eth,1,
3140,0xbf45ceaa31bc5,vault.leth1250.,1,
3141,0xed08fe81611f7,,1,4 months ago
3142,0x463ff9b3abf57,become.eth,1,
3143,0x254c35d7c1ad2,,1,
3144,0xecba5f51925e6,,1,1 year ago
3145,0x0000000000000,,1,
3146,0xbfe6ab7795175,,1,
3147,0x8f2a8b4e36f2a,,1,1 year ago
3148,0xb55d9b50ac574,vaid.eth,1,2 months ago
3149,0xcc7357203c0d1,,1,7 months ago
3150,0xf892d9fa129bd,,1,
3151,0xd65c7bb26c2b3,1976.eth,1,
3152,0x058adc6b6c242,,1,
3153,0xbe88a02e13998,vault.flippen.e,1,1 month ago
3154,0x01c59869b44f3,,1,
3155,0xc09b592a25e45,,1,6 days ago
3156,0xfbb0658c4796f,,1,
3157,0x1629780296ce7,,1,8 months ago
3158,0xc4bafdc0a6b7c,druidvault.eth,1,17 days ago
3159,0x4b674e70f6b36,,1,
3160,0x7c892fe9cd354,,1,
3161,0xa494272139827,,1,
3162,0x729fbdd2c5662,,1,
3163,0x3d23f06a4d2fe,micel.eth,1,2 months ago
3164,0x6e17e46371aba,,1,1 year ago
3165,0xe68fdcfb6bf14,,1,1 month ago
3166,0x5f0bd06a71e03,,1,9 months ago
3167,0x0000000000000,NullAddress,1,7 months ago
3168,0x3def562823106,defispartan.eth,1,
3169,0x1ff2875cd548e,,1,9 days ago
3170,0xb954f89691dbb,countryroads.et,1,
3171,0xf868a2de45bc3,,1,1 month ago
3172,0x6c22a9e37f4b5,faxme.eth,1,8 months ago
3173,0xa3937174067dd,,1,2 months ago
3174,0xe4bbcbff51e61,,1,3 months ago
3175,0xbb732bd390934,,1,10 days ago
3176,0x295ce385a1625,,1,1 year ago
3177,0x87f669c0ee22c,,1,
3178,0x9285f0e6a4715,,1,2 months ago
3179,0x2feb6c45b65c5,,1,
3180,0x3fb7c90e78db8,,1,5 months ago
3181,0x6ba4920879402,,1,
3182,0xa8db4c4b9e82e,,1,
3183,0x4a691d3cd58a5,,1,1 month ago
3184,0xb4b37ecc6d8fd,,1,
3185,0x27f8cf716723d,,1,1 month ago
3186,0xdafd095db8ec8,,1,2 months ago
3187,0x35ffc49e7fefc,droscott.eth,1,8 months ago
3188,0x8fc011ad86cc2,,1,1 year ago
3189,0xbe8fe12b9eb1c,poseidondaonft.,1,2 months ago
3190,0xfecf3ee3c8d4a,,1,
3191,0x81e46659783cb,hodlb.eth,1,
3192,0x5d52894a61df6,,1,26 days ago
3193,0xf2b09726761a3,,1,
3194,0x017daf6ad5579,,1,5 months ago
3195,0xef438ccffd112,,1,1 month ago
3196,0xe7449d1590d8f,,1,8 days ago
3197,0xe9aa4441bab65,,1,7 months ago
3198,0xc3c0465798ce9,,1,3 months ago
3199,0x0116d4c19d23b,,1,
3200,0x869ce6fb96b6e,ethereumjesus.e,1,4 months ago
3201,0x4cb6b23214499,0xbeasto.eth,1,21 hours ago
3202,0xb65893e83bbd9,xidong.eth,1,3 months ago
3203,0x42d2b7b782094,dickbas.eth,1,5 months ago
3204,0xa1ff0c6d0e599,,1,
3205,0x17e31bf839acb,0x17e31bf839acb,1,2 years ago
3206,0x46b4fa32beb80,,1,4 months ago
3207,0xd4fe2012b16b7,,1,
3208,0x14f2d1f840459,,1,1 month ago
3209,0x30602250c5f1f,Alegria,1,3 years ago
3210,0xa57e11b64f270,,1,24 days ago
3211,0x963a7ee7a2bb9,vincentyu.eth,1,12 days ago
3212,0xedf7b675a2fe3,🖕🖕🖕.eth,1,5 days ago
3213,0x4802e717a1353,,1,
3214,0xa9c09f45b2bd1,,1,2 years ago
3215,0xf26f2f6f86cf3,9272.eth,1,
3216,0xf8f3160d4d85c,,1,3 days ago
3217,0x34394eff1ef9c,,1,8 months ago
3218,0x282b745d5795f,,1,12 days ago
3219,0xd461c0e84c986,jpegjesus.eth,1,12 days ago
3220,0xfb5251bf63e23,,1,1 year ago
3221,0xed8b0bf8f7185,,1,1 month ago
3222,0x0c3195dee4277,0x0c3195dee4277,1,1 month ago
3223,0xace34f3fbceef,,1,8 months ago
3224,0x8c0ff426dfa77,boneheads.eth,1,3 months ago
3225,0x974097cd561de,,1,
3226,0xbd066b920a545,,1,3 years ago
3227,0xdf1fbe2d72299,,1,9 months ago
3228,0x44aa341af6610,,1,9 days ago
3229,0x54973508ccfba,,1,5 months ago
3230,0x6b76f013ea67f,tomsoong.eth,1,5 months ago
3231,0x32797155ae534,dennyvault.eth,1,
3232,0x470f0ee51c605,,1,3 months ago
3233,0x6176d1ca33c08,,1,
3234,0xa3f81f0a82f2a,,1,16 days ago
3235,0x48d0f04cead85,coys.eth,1,8 months ago
3236,0x30a957c539d04,,1,10 months ago
3237,0xcb5fba4419abc,jlwaugh.eth,1,3 years ago
3238,0x80dc4bc679be9,,1,8 months ago
3239,0xc7130002c8472,,1,7 months ago
3240,0xf0c2ec9f413bd,,1,22 days ago
3241,0x23a8b7f4cf5fb,,1,9 months ago
3242,0x873b79b0fea9b,,1,
3243,0xa56268c56983f,eoghan.eth,1,
3244,0xab68a9ed16c81,,1,7 months ago
3245,0xc6f69e100bbb3,ekuzodia.eth,1,1 month ago
3246,0x968850018d796,,1,4 months ago
3247,0xaf2b3a554b5a9,,1,8 months ago
3248,0x2fb971b3b80cd,,1,2 months ago
3249,0xbfc2117819e58,,1,
3250,0x882b76de0bb6b,,1,
3251,0xe7398b91b26ca,skyquakevault.e,1,
3252,0x1cc1983396e55,supahvault.eth,1,
3253,0xd271dba437a36,,1,1 year ago
3254,0xf29155745c8ee,,1,6 months ago
3255,0xaafcc8f4ac3d8,,1,8 months ago
3256,0xd81cd9615e0a2,,1,4 months ago
3257,0xf4e115673718b,gigimauri.eth,1,3 years ago
3258,0x6fec474030a27,,1,11 days ago
3259,0x9cad95e2f7c0a,,1,
3260,0xdbc4846b41c15,,1,
3261,0x6344641195844,,1,
3262,0x698f0664bdc21,,1,
3263,0x22eab1c785215,,1,8 months ago
3264,0x2363b1f0e89d7,,1,3 years ago
3265,0x3a1dd65d33a01,,1,
3266,0xff592d9c6d407,,1,4 months ago
3267,0x21a4c28cda2e0,,1,
3268,0xc8a7dd90d2fb8,,1,8 months ago
3269,0xfc7ff119c9642,,1,
3270,0xea8e1d16624cb,aliez.eth,1,1 month ago
3271,0x28454cf561650,,1,
3272,0xc317efc790e91,,1,14 days ago
3273,0xf4d86e1c3cf57,Raichidean,1,3 months ago
3274,0x72ba1965320ab,nanexcool.eth,1,2 months ago
3275,0xc4145c63fd531,,1,8 months ago
3276,0x50837f3c90bd4,,1,1 month ago
3277,0x59cdf8f029821,,1,8 months ago
3278,0x2a15cafb85096,,1,3 years ago
3279,0xd0926418bee65,davehanson.eth,1,1 month ago
3280,0xec6fa687ebc10,,1,
3281,0x4c85ece5bbf19,thepunk.eth,1,10 months ago
3282,0x7c1958ba95ab3,,1,4 months ago
3283,0x510bd1a857df8,,1,3 days ago
3284,0xf3551f4c9171f,,1,
3285,0x31ad05d24a998,,1,
3286,0x840724f70d2dc,diamondballz.et,1,3 months ago
3287,0xf23028a1acdf8,,1,2 months ago
3288,0xe5546f0f94b28,,1,9 months ago
3289,0x5b83ac19637d3,,1,12 days ago
3290,0x18e278e935f95,,1,3 months ago
3291,0x984d3e6f83d2e,,1,
3292,0xaa83ea638ff2a,,1,3 years ago
3293,0xf00f544c550c0,,1,2 months ago
3294,0xd082239e2592d,,1,
3295,0xe08c32737c021,,1,2 years ago
3296,0x96ad406ad8680,,1,1 month ago
3297,0x745882b5accca,,1,
3298,0x32405d88d9b90,,1,3 months ago
3299,0x3af4a3d023a34,,1,27 days ago
3300,0xb1879d599b990,,1,7 months ago
3301,0x44c0db7954be9,,1,
3302,0xd9633d413da47,littlehouse.eth,1,2 months ago
3303,0x85ab42b79b244,,1,9 months ago
3304,0xd373b2d5d61b9,allforresearch.,1,8 months ago
3305,0xb96e81f80b3ae,brightmoments.e,1,
3306,0xbd12b97baffa8,,1,
3307,0xd74f186194ab9,,1,
3308,0xafe1afab34a23,,1,6 months ago
3309,0x962bd5b036e32,,1,1 year ago
3310,0x31a47094c6325,,1,4 months ago
3311,0x4136e3aa19aad,,1,3 months ago
3312,0x78e6fe8e1d14a,,1,14 days ago
3313,0xd19ddf9056f73,,1,6 months ago
3314,0xdbecdbd53ff10,,1,
3315,0x82b15b78ba919,kinghill.eth,1,
3316,0xc442b7f7d0f81,,1,
3317,0x9844dce89c5e0,,1,11 days ago
3318,0x99c63b3f73d8c,vault.dandelion,1,
3319,0x5aafe95b15d90,,1,
3320,0xd41d359c4ee03,,1,9 months ago
3321,0xe0297e84e4920,,1,4 days ago
3322,0xca86532c9814e,,1,
3323,0xee113b5073b08,CryptoPunkQueen,1,7 months ago
3324,0x1fdf89dd0eba8,jsmr.eth,1,3 months ago
3325,0x9b4a72c67215b,usdtmaxi.eth,1,4 months ago
3326,0xb532872296e2a,,1,4 months ago
3327,0x33fa7aea9e9fd,,1,2 months ago
3328,0x00677778022f4,,1,2 months ago
3329,0xea32ab219fbf6,,1,12 days ago
3330,0xde3df72601b79,,1,8 months ago
3331,0xf143e0ad14a02,rivatez.eth,1,7 months ago
3332,0x117c6e09cc85d,,1,8 months ago
3333,0x88b79cf86f794,,1,1 month ago
3334,0x1f92fc15bcbeb,,1,5 months ago
3335,0xb9bad1865bfb1,,1,
3336,0xf9963dbe9438a,billξ.eth,1,9 months ago
3337,0x0a2a65fac5ad9,,1,5 months ago
3338,0x8ee6a83c12401,,1,1 hour ago
3339,0xcd7c8d59ada56,,1,5 days ago
3340,0xa381345472f78,,1,
3341,0xf82502938b8b0,redli.eth,1,1 year ago
3342,0x833d9fa23e20a,mindfoolvault.e,1,7 months ago
3343,0x2afa2dae85a77,Tschuuulys,1,22 days ago
3344,0x7b865d0b7bf3c,,1,7 months ago
3345,0x3f333b771abb8,,1,
3346,0x60251579f5d1b,,1,6 months ago
3347,0x87017550d00ee,,1,1 month ago
3348,0xcb1096e77d6ea,,1,1 month ago
3349,0xc0ab13eb84cbc,,1,
3350,0x9bb3e06a6667e,,1,
3351,0x6dea2b37104cb,illus.eth,1,7 months ago
3352,0xf450a188a00a8,,1,
3353,0xe6f532e336185,,1,4 months ago
3354,0x33bf10b2b4a57,,1,3 months ago
3355,0xd35d8f5df82f6,,1,
3356,0xef4396d9ff810,dcposch.eth,1,4 months ago
3357,0xfa948c9265516,,1,
3358,0xe29e61ca041b3,,1,1 year ago
3359,0x0c54a765c77a8,odiousvault.eth,1,9 months ago
3360,0x518aa2fd8966f,,1,10 days ago
3361,0xd9046ee6ed17a,,1,11 months ago
3362,0x5e4bfb9b30481,,1,4 days ago
3363,0x074e3df462536,,1,1 year ago
3364,0xe937e88591f64,punk7917.eth,1,11 months ago
3365,0xaba29c439aa74,,1,
3366,0x41fcf474a454f,,1,
3367,0xad7a0063dd998,,1,
3368,0xc69f5d1eb768e,,1,
3369,0x1e4e1f77c4c9d,,1,
3370,0xc34fa49d47717,,1,1 month ago
3371,0xf4f8fbfaa52e6,,1,
3372,0x50c8b7e03639a,,1,2 months ago
3373,0xae43b2e277401,,1,8 months ago
3374,0x19c79a0c102a7,,1,1 day ago
3375,0x229beeaa51590,,1,2 months ago
3376,0x408630f7f8dd2,borovik.eth,1,2 months ago
3377,0x0aa6489745c55,,1,
3378,0xba7745e49ec4e,,1,3 months ago
3379,0x9f786933b9090,,1,
3380,0x6240f68553a39,,1,
3381,0x8d23bef354f24,,1,
3382,0x7f208e6b4f99b,grandenchilada.,1,
3383,0x87b740014b4e9,casualsteez.eth,1,2 months ago
3384,0x22834271ba74c,,1,
3385,0x89d5387bd2bfe,,1,
3386,0x5373693eb3a3f,,1,
3387,0x4a657d5361471,,1,7 months ago
3388,0x9cf33c6ed6182,,1,
3389,0x693bccd6116da,,1,
3390,0x5efdb6d8c798c,schmrypto.eth,1,2 days ago
3391,0x538faf7f2e3f9,,1,8 months ago
3392,0x53395a3ae9ecc,,1,1 month ago
3393,0xd85659becc8d8,,1,
3394,0x4a9b7b4d4e24c,,1,3 months ago
3395,0x0e76adcf394cb,artandhealing.e,1,
3396,0x22ffffe3b1f71,,1,16 days ago
3397,0x2d3e745c59d08,,1,
3398,0x90e45ddcf0c6d,yymeta.eth,1,2 months ago
3399,0x25aa9d898d055,,1,
3400,0x290fbe4d4745f,21x.eth,1,9 months ago
3401,0x2e73aa4cba66c,,1,2 months ago
3402,0xa387c87102fc0,snape0x.eth,1,9 months ago
3403,0xd3b52a5cf3643,kevinren.eth,1,8 months ago
3404,0x0eee196aee052,,1,7 months ago
3405,0x519f16c727a12,,1,
3406,0xa2272469c824d,3448.eth,1,3 months ago
3407,0x9ef3608c23dc8,,1,5 months ago
3408,0x0aa78b747dfc1,,1,
3409,0x283e16cc6de9d,punk6845.eth,1,9 months ago
3410,0x2c35416dc20a1,Sixty,1,1 year ago
3411,0x863051567c4b2,,1,8 days ago
3412,0x9febe617fbab3,cryptopete.eth,1,2 months ago
3413,0x7728915cacf36,,1,
3414,0xd119d08e08d17,fizzylifting.et,1,29 days ago
3415,0x67be05ebb0510,,1,2 months ago
3416,0xf7bc410301515,,1,
3417,0xde9eaae4d2110,,1,
3418,0xc2f369965d772,,1,
3419,0xadd708d8ceb2b,,1,1 month ago
3420,0x6a46f13a1519c,,1,
3421,0xba86eb14e0fe2,,1,
3422,0xd79a09bbf0ead,,1,3 years ago
3423,0x1b672e08c3cc6,twinflames.eth,1,6 months ago
3424,0x463493cb9d624,,1,3 years ago
3425,0x1d62204746a1b,,1,3 years ago
3426,0x013335955f711,,1,24 days ago
3427,0x9b167ae7a58a1,generativemaxi.,1,
3428,0x9fdf724bcdf93,cuy.eth,1,1 year ago
3429,0x799b52e309d6d,,1,
3430,0x520297dab0761,,1,5 months ago
3431,0x35a7e409b1ced,,1,
